 vasp.5.4.4.18Apr17-6-g9f103f2a35 (build Aug 07 2018 15:16:41) complex

 executed on             LinuxIFC date 2019.10.18  01:18:28

 INCAR:
 POTCAR:    PAW_PBE Pt 04Feb2005
 POTCAR:    PAW_PBE Pt 04Feb2005
   VRHFIN =Pt: s1d9

   TITEL  = PAW_PBE Pt 04Feb2005
   POMASS =  195.080; ZVAL   =   10.000    mass and valenz
   ENMAX  =  230.283; ENMIN  =  172.712 eV

 Optimization of the real space projectors (new method)

 maximal supplied QI-value         = 14.36
 optimisation between [QCUT,QGAM] = [  9.48, 19.10] = [ 25.16,102.17] Ry
 Optimized for a Real-space Cutoff    1.57 Angstroem

   l    n(q)    QCUT    max X(q) W(low)/X(q) W(high)/X(q)  e(spline)
   2      8     9.479    66.195    0.35E-03    0.53E-04    0.87E-07
   2      8     9.479    64.643    0.35E-03    0.57E-04    0.91E-07
   0      9     9.479    95.520    0.50E-04    0.62E-04    0.81E-07
   0      9     9.479    63.403    0.49E-04    0.60E-04    0.78E-07
   1      8     9.479    19.961    0.10E-03    0.87E-04    0.11E-06
   1      8     9.479    13.289    0.88E-04    0.71E-04    0.97E-07

  PAW_PBE Pt 04Feb2005                  :

 POSCAR: Pt
  positions in cartesian coordinates
 exchange correlation table for  LEXCH =        9
   RHO(1)=    0.500       N(1)  =     2000
   RHO(2)=  100.500       N(2)  =     4000

 ion  position               nearest neighbor table
   1  0.000  0.000  0.372-   5 2.82   6 2.82   7 2.82   3 2.82   3 2.82   4 2.82   4 2.82   2 2.82
                             2 2.82
   2  0.500  0.000  0.372-   6 2.82   5 2.82   8 2.82   4 2.82   3 2.82   4 2.82   3 2.82   1 2.82
                             1 2.82
   3  0.000  0.500  0.372-   7 2.82   5 2.82   8 2.82   1 2.82   1 2.82   2 2.82   2 2.82   4 2.82
                             4 2.82
   4  0.500  0.500  0.372-   8 2.82   7 2.82   6 2.82   2 2.82   1 2.82   2 2.82   1 2.82   3 2.82
                             3 2.82
   5  0.167  0.167  0.457-  12 2.81   9 2.81  10 2.81   1 2.82   3 2.82   2 2.82   7 2.82   7 2.82
                             8 2.82   8 2.82   6 2.82   6 2.82
   6  0.667  0.167  0.457-  11 2.81   9 2.81  10 2.81   2 2.82   4 2.82   1 2.82   8 2.82   7 2.82
                             8 2.82   7 2.82   5 2.82   5 2.82
   7  0.167  0.667  0.457-  11 2.81  12 2.81  10 2.81   3 2.82   4 2.82   1 2.82   5 2.82   5 2.82
                             6 2.82   6 2.82   8 2.82   8 2.82
   8  0.667  0.667  0.457-  11 2.81  12 2.81   9 2.81   4 2.82   2 2.82   3 2.82   6 2.82   5 2.82
                             6 2.82   5 2.82   7 2.82   7 2.82
   9  0.833  0.333  0.542-   8 2.81   6 2.81   5 2.81  12 2.82  11 2.82  10 2.82  10 2.82  11 2.82
                            12 2.82  13 2.84  16 2.84  15 2.84
  10  0.333  0.333  0.542-   6 2.81   7 2.81   5 2.81   9 2.82  12 2.82  11 2.82  11 2.82  12 2.82
                             9 2.82  14 2.84  16 2.84  15 2.84
  11  0.833  0.833  0.542-   8 2.81   7 2.81   6 2.81   9 2.82  12 2.82  10 2.82  10 2.82  12 2.82
                             9 2.82  14 2.84  13 2.84  15 2.84
  12  0.333  0.833  0.542-   8 2.81   7 2.81   5 2.81   9 2.82  11 2.82  10 2.82  10 2.82  11 2.82
                             9 2.82  14 2.84  13 2.84  16 2.84
  13  0.000  1.000  0.629-  15 2.82  16 2.82  14 2.82  14 2.82  16 2.82  15 2.82   9 2.84  12 2.84
                            11 2.84
  14  0.500  1.000  0.629-  15 2.82  16 2.82  13 2.82  13 2.82  16 2.82  15 2.82  10 2.84  12 2.84
                            11 2.84
  15  1.000  0.500  0.629-  13 2.82  14 2.82  16 2.82  16 2.82  14 2.82  13 2.82  10 2.84   9 2.84
                            11 2.84
  16  0.500  0.500  0.629-  13 2.82  14 2.82  15 2.82  15 2.82  14 2.82  13 2.82  10 2.84   9 2.84
                            12 2.84

IMPORTANT INFORMATION: All symmetrisations will be switched off!
NOSYMM: (Re-)initialisation of all symmetry stuff for point group C_1.

 KPOINTS: KPOINTS created by Atomic Simulation Env

Automatic generation of k-mesh.
Space group operators:
 irot       det(A)        alpha          n_x          n_y          n_z        tau_x        tau_y        tau_z
    1     1.000000     0.000000     1.000000     0.000000     0.000000     0.000000     0.000000     0.000000

 Subroutine IBZKPT returns following result:

 Found     13 irreducible k-points:

 Following reciprocal coordinates:
            Coordinates               Weight
  0.000000  0.000000  0.000000      1.000000
  0.200000  0.000000  0.000000      2.000000
  0.400000  0.000000  0.000000      2.000000
  0.000000  0.200000  0.000000      2.000000
  0.200000  0.200000  0.000000      2.000000
  0.400000  0.200000  0.000000      2.000000
 -0.400000  0.200000  0.000000      2.000000
 -0.200000  0.200000  0.000000      2.000000
  0.000000  0.400000  0.000000      2.000000
  0.200000  0.400000  0.000000      2.000000
  0.400000  0.400000  0.000000      2.000000
 -0.400000  0.400000  0.000000      2.000000
 -0.200000  0.400000  0.000000      2.000000

 Following cartesian coordinates:
            Coordinates               Weight
  0.000000  0.000000  0.000000      1.000000
  0.035437 -0.020459  0.000000      2.000000
  0.070874 -0.040919  0.000000      2.000000
  0.000000  0.040919  0.000000      2.000000
  0.035437  0.020459  0.000000      2.000000
  0.070874  0.000000  0.000000      2.000000
 -0.070874  0.081838  0.000000      2.000000
 -0.035437  0.061378  0.000000      2.000000
  0.000000  0.081838  0.000000      2.000000
  0.035437  0.061378  0.000000      2.000000
  0.070874  0.040919  0.000000      2.000000
 -0.070874  0.122757  0.000000      2.000000
 -0.035437  0.102297  0.000000      2.000000

 SYSTEM =  unknown system
 POSCAR =  Pt

 Startparameter for this run:
   NWRITE =      2    write-flag & timer
   PREC   = normal    normal or accurate (medium, high low for compatibility)
   ISTART =      0    job   : 0-new  1-cont  2-samecut
   ICHARG =      2    charge: 1-file 2-atom 10-const
   ISPIN  =      1    spin polarized calculation?
   LNONCOLLINEAR =      F non collinear calculations
   LSORBIT =      F    spin-orbit coupling
   INIWAV =      1    electr: 0-lowe 1-rand  2-diag
   LASPH  =      F    aspherical Exc in radial PAW
   METAGGA=      F    non-selfconsistent MetaGGA calc.

 Electronic Relaxation 1
   ENCUT  =  350.0 eV  25.72 Ry    5.07 a.u.   8.61  8.61 41.05*2*pi/ulx,y,z
   ENINI  =  350.0     initial cutoff
   ENAUG  =  359.0 eV  augmentation charge cutoff
   NELM   =     60;   NELMIN=  2; NELMDL= -5     # of ELM steps
   EDIFF  = 0.1E-03   stopping-criterion for ELM
   LREAL  =      T    real-space projection
   NLSPLINE    = F    spline interpolate recip. space projectors
   LCOMPAT=      F    compatible to vasp.4.4
   GGA_COMPAT  = T    GGA compatible to vasp.4.4-vasp.4.6
   LMAXPAW     = -100 max onsite density
   LMAXMIX     =    2 max onsite mixed and CHGCAR
   VOSKOWN=      0    Vosko Wilk Nusair interpolation
   ROPT   =   -0.00050
 Ionic relaxation
   EDIFFG = -.3E-01   stopping-criterion for IOM
   NSW    =      0    number of steps for IOM
   NBLOCK =      1;   KBLOCK =      1    inner block; outer block
   IBRION =     -1    ionic relax: 0-MD 1-quasi-New 2-CG
   NFREE  =      1    steps in history (QN), initial steepest desc. (CG)
   ISIF   =      0    stress and relaxation
   IWAVPR =     10    prediction:  0-non 1-charg 2-wave 3-comb
   ISYM   =      0    0-nonsym 1-usesym 2-fastsym
   LCORR  =      T    Harris-Foulkes like correction to forces

   POTIM  = 0.5000    time-step for ionic-motion
   TEIN   =    0.0    initial temperature
   TEBEG  =    0.0;   TEEND  =   0.0 temperature during run
   SMASS  =  -3.00    Nose mass-parameter (am)
   estimated Nose-frequenzy (Omega)   =  0.10E-29 period in steps =****** mass=  -0.728E-27a.u.
   SCALEE = 1.0000    scale energy and forces
   NPACO  =    256;   APACO  = 16.0  distance and # of slots for P.C.
   PSTRESS=    0.0 pullay stress

  Mass of Ions in am
   POMASS = 195.08
  Ionic Valenz
   ZVAL   =  10.00
  Atomic Wigner-Seitz radii
  virtual crystal weights
   VCA    =   1.00
   NELECT =     160.0000    total number of electrons
   NUPDOWN=      -1.0000    fix difference up-down

 DOS related values:
   EMIN   =  10.00;   EMAX   =-10.00  energy-range for DOS
   EFERMI =   0.00
   ISMEAR =     1;   SIGMA  =   0.20  broadening in eV -4-tet -1-fermi 0-gaus

 Electronic relaxation 2 (details)
   IALGO  =     38    algorithm
   LDIAG  =      T    sub-space diagonalisation (order eigenvalues)
   LSUBROT=      F    optimize rotation matrix (better conditioning)
   TURBO    =      0    0=normal 1=particle mesh
   IRESTART =      0    0=no restart 2=restart with 2 vectors
   NREBOOT  =      0    no. of reboots
   NMIN     =      0    reboot dimension
   EREF     =   0.00    reference energy to select bands
   IMIX   =      4    mixing-type and parameters
     AMIX     =   0.40;   BMIX     =  1.00
     AMIX_MAG =   1.60;   BMIX_MAG =  1.00
     AMIN     =   0.10
     WC   =   100.;   INIMIX=   1;  MIXPRE=   1;  MAXMIX= -45

 Intra band minimization:
   WEIMIN = 0.0000     energy-eigenvalue tresh-hold
   EBREAK =  0.26E-06  absolut break condition
   DEPER  =   0.30     relativ break condition

   TIME   =   0.40     timestep for ELM

  volume/ion in A,a.u.               =      46.40       313.12
  Fermi-wavevector in a.u.,A,eV,Ry     =   0.981532  1.854827 13.107924  0.963405
  Thomas-Fermi vector in A             =   2.112546

 Write flags
   LWAVE        =      F    write WAVECAR
   LDOWNSAMPLE  =      F    k-point downsampling of WAVECAR
   LCHARG       =      F    write CHGCAR
   LVTOT        =      F    write LOCPOT, total local potential
   LVHAR        =      F    write LOCPOT, Hartree potential only
   LELF         =      F    write electronic localiz. function (ELF)
   LORBIT       =      0    0 simple, 1 ext, 2 COOP (PROOUT), +10 PAW based schemes

 Dipole corrections
   LMONO  =      F    monopole corrections only (constant potential shift)
   LDIPOL =      F    correct potential (dipole corrections)
   IDIPOL =      0    1-x, 2-y, 3-z, 4-all directions
   EPSILON=  1.0000000 bulk dielectric constant

 Exchange correlation treatment:
   GGA     =    RP    GGA type
   VOSKOWN=      0    Vosko Wilk Nusair interpolation
   LHFCALC =     F    Hartree Fock is set to
   LHFONE  =     F    Hartree Fock one center treatment
   AEXX    =    0.0000 exact exchange contribution

 Linear response parameters
   LEPSILON=     F    determine dielectric tensor
   LRPA    =     F    only Hartree local field effects (RPA)
   LNABLA  =     F    use nabla operator in PAW spheres
   LVEL    =     F    velocity operator in full k-point grid
   LINTERFAST=   F  fast interpolation
   KINTER  =     0    interpolate to denser k-point grid
   CSHIFT  =0.1000    complex shift for real part using Kramers Kronig
   OMEGAMAX=  -1.0    maximum frequency
   DEG_THRESHOLD= 0.2000000E-02 threshold for treating states as degnerate
   RTIME   =   -0.100 relaxation time in fs
  (WPLASMAI=    0.000 imaginary part of plasma frequency in eV, 0.658/RTIME)
   DFIELD  = 0.0000000 0.0000000 0.0000000 field for delta impulse in time

 Orbital magnetization related:
   ORBITALMAG=     F  switch on orbital magnetization
[...]
   4.23288318  0.81461875 12.30408976
   2.82192212  3.25847499 12.30408976
   5.64384424  3.25847499 12.30408976
   5.64384157  1.62924368 14.59313987
   2.82192507  1.62923801 14.59315297
   7.05480229  4.07309068 14.59305841
   4.23288762  4.07308778 14.59306307
   2.82191990  4.88769906 16.92027776
   5.64384620  4.88770457 16.92011010
   7.05481007  2.44386795 16.92048434
   4.23287905  2.44386567 16.92042010

 k-point  1 :   0.0000 0.0000 0.0000  plane waves:   11069
 k-point  2 :   0.2000 0.0000 0.0000  plane waves:   11057
 k-point  3 :   0.4000 0.0000 0.0000  plane waves:   11035
 k-point  4 :   0.0000 0.2000 0.0000  plane waves:   11057
 k-point  5 :   0.2000 0.2000 0.0000  plane waves:   11057
 k-point  6 :   0.4000 0.2000 0.0000  plane waves:   11021
 k-point  7 :  -0.4000 0.2000 0.0000  plane waves:   11028
 k-point  8 :  -0.2000 0.2000 0.0000  plane waves:   11021
 k-point  9 :   0.0000 0.4000 0.0000  plane waves:   11035
 k-point 10 :   0.2000 0.4000 0.0000  plane waves:   11021
 k-point 11 :   0.4000 0.4000 0.0000  plane waves:   11035
 k-point 12 :  -0.4000 0.4000 0.0000  plane waves:   11028
 k-point 13 :  -0.2000 0.4000 0.0000  plane waves:   11028

 maximum and minimum number of plane-waves per node :      2799     2729

 maximum number of plane-waves:     11069
 maximum index in each direction:
   IXMAX=    9   IYMAX=    8   IZMAX=   41
   IXMIN=   -9   IYMIN=   -9   IZMIN=  -41

 real space projection operators:
  max/ min on nodes  :       1179.00       1173.38

 parallel 3D FFT for wavefunctions:
    minimum data exchange during FFTs selected (reduces bandwidth)
 parallel 3D FFT for charge:
    minimum data exchange during FFTs selected (reduces bandwidth)

 Broyden mixing: mesh for mixing (old mesh)
   NGX = 17   NGY = 17   NGZ = 83
  (NGX  = 56   NGY  = 56   NGZ  =252)
  gives a total of  23987 points

 initial charge density was supplied:
 charge density of overlapping atoms calculated
 number of electron     160.0000000 magnetization
 keeping initial charge density in first step

 Maximum index for non-local projection operator          534
 Maximum index for augmentation-charges          700 (set IRDMAX)

 First call to EWALD:  gamma=   0.196
 Maximum number of real-space cells 5x 5x 1
 Maximum number of reciprocal cells 2x 2x 7

--------------------------------------- Iteration      1(   1)  ---------------------------------------

 eigenvalue-minimisations  :  2496
 total energy-change (2. order) : 0.9580502E+03  (-0.5606845E+04)
 number of electron     160.0000000 magnetization
 augmentation part      160.0000000 magnetization

 Free energy of the ion-electron system (eV)
  alpha Z        PSCENC =       327.79239094
  Ewald energy   TEWEN  =     70816.88615504
  -Hartree energ DENC   =    -82996.89424619
  -exchange      EXHF   =         0.00000000
  -V(xc)+E(xc)   XCENC  =        47.62968478
  PAW double counting   =     11147.29520678   -10679.33236820
  entropy T*S    EENTRO =        -0.00492294
  eigenvalues    EBANDS =       641.71748901
  atomic energy  EATOM  =     11652.96080409
  Solvation  Ediel_sol  =         0.00000000
  free energy    TOTEN  =       958.05019330 eV

  energy without entropy =      958.05511624  energy(sigma->0) =      958.05183428

[...]

 eigenvalue-minimisations  :  3144
 total energy-change (2. order) :-0.9693441E+03  (-0.8962994E+03)
 number of electron     160.0000000 magnetization
 augmentation part      160.0000000 magnetization

[...]

 Broyden mixing:
  rms(total) = 0.37693E+01    rms(broyden)= 0.37692E+01
  rms(prec ) = 0.38056E+01
  weight for this iteration     100.00

[...]

 eigenvalues of (default mixing * dielectric matrix)
  average eigenvalue GAMMA=   1.4316
  1.4316

[...]

 eigenvalue-minimisations  :  2192
 total energy-change (2. order) :-0.5657479E-03  (-0.8504962E-04)
 number of electron     159.9999885 magnetization
 augmentation part       49.9408400 magnetization

[...]

 Broyden mixing:
  rms(total) = 0.34092E-01    rms(broyden)= 0.34092E-01
  rms(prec ) = 0.34596E-01
  weight for this iteration     100.00

 eigenvalues of (default mixing * dielectric matrix)
  average eigenvalue GAMMA=   0.8932
  2.5356  2.5356  1.9748  1.9748  1.3651  0.8963  0.8963  0.6463  0.6463  0.7903
  0.6082  0.6082  0.5753  0.1038  0.2641  0.2641  0.3552  0.3365  0.2424  0.2449

[...]

--------------------------------------- Iteration      1(  26)  ---------------------------------------

 eigenvalue-minimisations  :  1608
 total energy-change (2. order) : 0.3241355E-04  (-0.1360287E-04)
 number of electron     159.9999886 magnetization
 augmentation part       49.9403307 magnetization

 Free energy of the ion-electron system (eV)
  alpha Z        PSCENC =       327.79239094
  Ewald energy   TEWEN  =     70816.88615504
  -Hartree energ DENC   =    -82845.23230281
  -exchange      EXHF   =         0.00000000
  -V(xc)+E(xc)   XCENC  =        42.83256486
  PAW double counting   =     13873.78728198   -13446.25442869
  entropy T*S    EENTRO =        -0.05393821
  eigenvalues    EBANDS =      -505.65661452
  atomic energy  EATOM  =     11652.96080409
  Solvation  Ediel_sol  =         0.00000000
  free energy    TOTEN  =       -82.93808732 eV

  energy without entropy =      -82.88414911  energy(sigma->0) =      -82.92010792

 average (electrostatic) potential at core
  the test charge radii are     1.2059
  (the norm of the test charge is              1.0000)
       1 -73.7716       2 -73.7711       3 -73.7713       4 -73.7711       5 -74.1945
       6 -74.1937       7 -74.1937       8 -74.1922       9 -74.1753      10 -74.1769
      11 -74.1744      12 -74.1753      13 -73.7520      14 -73.7533      15 -73.7530
      16 -73.7532

 E-fermi :  -0.1503     XC(G=0):  -5.2320     alpha+bet : -5.4000

 k-point     1 :       0.0000    0.0000    0.0000
  band No.  band energies     occupation
      1      -9.2189      2.00000
      2      -7.9267      2.00000
      3      -6.8379      2.00000
      4      -6.7413      2.00000
      5      -6.4946      2.00000
      6      -6.4945      2.00000
      7      -6.4945      2.00000
      8      -6.3290      2.00000
      9      -6.3290      2.00000
     10      -6.3289      2.00000
     11      -5.8923      2.00000
     12      -5.8923      2.00000
     13      -5.8922      2.00000
     14      -5.6649      2.00000
     15      -5.6648      2.00000
     16      -5.6648      2.00000
     17      -5.5845      2.00000
     18      -5.5843      2.00000
     19      -5.5843      2.00000
     20      -4.7729      2.00000
     21      -4.7729      2.00000
     22      -4.7729      2.00000
     23      -3.8215      2.00000
     24      -3.8214      2.00000
     25      -3.8214      2.00000
     26      -3.7115      2.00000
     27      -3.7114      2.00000
     28      -3.7114      2.00000
     29      -3.6561      2.00000
     30      -3.5271      2.00000
     31      -3.5271      2.00000
     32      -3.5077      2.00000
     33      -3.4241      2.00000
     34      -3.4241      2.00000
     35      -3.2619      2.00000
     36      -3.2619      2.00000
     37      -3.2619      2.00000
     38      -3.0640      2.00000
     39      -3.0640      2.00000
     40      -2.9696      2.00000
     41      -2.9696      2.00000
     42      -2.6786      2.00000
     43      -2.6309      2.00000
     44      -2.6308      2.00000
     45      -2.6308      2.00000
     46      -2.1896      2.00000
     47      -2.1895      2.00000
     48      -2.1894      2.00000
     49      -2.0768      2.00000
     50      -2.0767      2.00000
     51      -2.0767      2.00000
     52      -1.6078      2.00000
     53      -1.6078      2.00000
     54      -1.2781      2.00000
     55      -1.2781      2.00000
     56      -1.0356      2.00000
     57      -1.0356      2.00000
     58      -1.0355      2.00000
     59      -0.8281      2.00002
     60      -0.8281      2.00002
[...]
     82       0.3359     -0.00314
     83       0.3361     -0.00313
     84       0.3361     -0.00313
     85       0.6614     -0.00000
     86       0.8711     -0.00000
     87       0.8711     -0.00000
     88       0.8712     -0.00000
     89       2.2457     -0.00000
     90       2.2457     -0.00000
     91       2.2458     -0.00000
     92       2.5442     -0.00000
     93       2.5442     -0.00000
     94       2.5442     -0.00000
     95       2.8332     -0.00000
     96       2.8332     -0.00000

[...]

 k-point    13 :      -0.2000    0.4000    0.0000
  band No.  band energies     occupation
      1      -7.2353      2.00000
      2      -7.2353      2.00000
      3      -6.2480      2.00000
      4      -6.2086      2.00000
      5      -6.2085      2.00000
      6      -5.6830      2.00000
      7      -5.4081      2.00000
      8      -5.4079      2.00000
      9      -5.3681      2.00000
     10      -5.2769      2.00000
     11      -5.1858      2.00000
     12      -5.1175      2.00000
     13      -5.1173      2.00000
     14      -5.0097      2.00000
     15      -4.8021      2.00000
     16      -4.7944      2.00000
     17      -4.7455      2.00000
     18      -4.7454      2.00000
     19      -4.6204      2.00000
     20      -4.5617      2.00000
     21      -4.3951      2.00000
     22      -4.3950      2.00000
     23      -4.3758      2.00000
     24      -4.3654      2.00000
     25      -4.2483      2.00000
     26      -4.2480      2.00000
     27      -4.2386      2.00000
     28      -4.1707      2.00000
     29      -3.9269      2.00000
     30      -3.6964      2.00000
     31      -3.6964      2.00000
     32      -3.6772      2.00000
     33      -3.6074      2.00000
     34      -3.5658      2.00000
     35      -3.5555      2.00000
     36      -3.5552      2.00000
     37      -3.4914      2.00000
     38      -3.4563      2.00000
     39      -3.3954      2.00000
     40      -3.3953      2.00000
     41      -3.1279      2.00000
     42      -3.1277      2.00000
     43      -3.0232      2.00000
     44      -2.8788      2.00000
     45      -2.8547      2.00000
     46      -2.8545      2.00000
     47      -2.7906      2.00000
     48      -2.7768      2.00000
     49      -2.7692      2.00000
     50      -2.7319      2.00000
     51      -2.5166      2.00000
     52      -2.5165      2.00000
     53      -2.2076      2.00000
     54      -2.1755      2.00000
     55      -2.1751      2.00000
     56      -2.0639      2.00000
     57      -2.0637      2.00000
     58      -2.0619      2.00000
     59      -1.8147      2.00000
     60      -1.8145      2.00000
[...]
     82      -0.3157      1.99332
     83      -0.1572      1.05834
     84      -0.1539      1.03124
     85       0.2579     -0.01399
     86       0.3457     -0.00253
     87       0.4162     -0.00046
     88       0.4163     -0.00046
     89       1.4444     -0.00000
     90       2.4135     -0.00000
     91       2.4136     -0.00000
     92       3.4562     -0.00000
     93       3.5255     -0.00000
     94       4.4392     -0.00000
     95       4.8521     -0.00000
     96       4.8523     -0.00000

 soft charge-density along one line, spin component           1
         0         1         2         3         4         5         6         7         8         9
 total charge-density along one line

------------------------ aborting loop because EDIFF is reached ----------------------------------------

 VOLUME and BASIS-vectors are now :
  energy-cutoff  :      350.00
  volume of cell :      742.39
      direct lattice vectors                 reciprocal lattice vectors
     5.643844236  0.000000000  0.000000000     0.177184195 -0.102297343  0.000000000
     2.821922118  4.887712483  0.000000000     0.000000000  0.204594686  0.000000000
     0.000000000  0.000000000 26.912269283     0.000000000  0.000000000  0.037157773

  length of vectors
     5.643844236  5.643844236 26.912269283     0.204594686  0.204594686  0.037157773

 FORCES acting on ions
    electron-ion (+dipol)            ewald-force                    non-local-force                 convergence-correction
   0.401E-02 -.177E-02 0.258E+04   0.297E-04 0.329E-03 -.258E+04   0.798E-04 0.229E-03 -.117E+01   -.414E-02 0.113E-02 -.210E+00
   -.457E-02 0.101E-01 0.258E+04   -.295E-04 0.400E-03 -.258E+04   -.504E-04 0.310E-03 -.117E+01   0.471E-02 -.109E-01 -.196E+00
   0.103E-01 -.583E-02 0.258E+04   0.616E-04 -.381E-03 -.258E+04   0.318E-04 -.367E-03 -.117E+01   -.104E-01 0.664E-02 -.207E+00
   -.111E-01 -.188E-02 0.258E+04   -.617E-04 -.347E-03 -.258E+04   0.244E-04 -.217E-03 -.117E+01   0.112E-01 0.251E-02 -.200E+00
   0.647E-02 -.941E-03 0.864E+03   -.109E-03 0.718E-02 -.863E+03   -.329E-04 0.781E-05 -.289E+00   -.638E-02 -.621E-02 -.944E+00
   -.627E-02 0.313E-02 0.864E+03   0.101E-03 0.700E-02 -.863E+03   -.107E-04 0.426E-05 -.289E+00   0.623E-02 -.102E-01 -.943E+00
   0.368E-02 -.455E-02 0.864E+03   -.131E-03 -.706E-02 -.863E+03   -.560E-04 -.559E-04 -.289E+00   -.361E-02 0.117E-01 -.943E+00
   -.261E-02 0.235E-02 0.864E+03   0.163E-03 -.714E-02 -.863E+03   -.616E-05 -.381E-05 -.289E+00   0.254E-02 0.476E-02 -.936E+00
   -.450E-02 -.866E-02 -.867E+03   0.626E-02 0.696E-02 0.867E+03   0.759E-04 0.134E-03 0.425E+00   -.181E-02 0.185E-02 -.480E+00
   0.408E-02 -.156E-01 -.867E+03   -.620E-02 0.221E-01 0.867E+03   -.673E-04 0.110E-03 0.425E+00   0.214E-02 -.615E-02 -.469E+00
   -.454E-02 0.143E-01 -.867E+03   0.129E-01 -.181E-01 0.867E+03   -.102E-03 -.105E-03 0.426E+00   -.827E-02 0.358E-02 -.475E+00
   0.484E-02 0.970E-02 -.867E+03   -.130E-01 -.109E-01 0.867E+03   0.639E-04 0.316E-04 0.425E+00   0.804E-02 0.915E-03 -.473E+00
   0.235E-02 -.587E-02 -.258E+04   0.152E-02 0.439E-02 0.257E+04   0.689E-04 0.313E-03 0.107E+01   -.403E-02 0.129E-02 0.948E-01
   -.241E-02 0.122E-01 -.258E+04   -.145E-02 -.111E-03 0.257E+04   -.152E-03 0.300E-03 0.108E+01   0.402E-02 -.125E-01 0.114E+00
   0.158E-01 -.449E-02 -.258E+04   -.386E-02 -.301E-02 0.257E+04   -.833E-04 -.337E-03 0.107E+01   -.120E-01 0.780E-02 0.105E+00
   -.151E-01 -.222E-02 -.258E+04   0.380E-02 -.130E-02 0.257E+04   -.281E-04 -.190E-03 0.107E+01   0.114E-01 0.368E-02 0.110E+00
   0.453E-03 -.142E-04 0.586E+01   0.279E-13 -.371E-13 0.909E-12   -.245E-03 0.163E-03 0.157E+00   -.375E-03 -.123E-03 -.605E+01

 POSITION                                       TOTAL-FORCE (eV/Angst)
      0.00000      0.00000     10.00000        -0.000008     -0.000083     -0.112970
      2.82192      0.00000     10.00000         0.000074     -0.000100     -0.111154
      1.41096      2.44386     10.00000        -0.000017      0.000063     -0.111547
      4.23288      2.44386     10.00000         0.000099      0.000064     -0.110677
      1.41096      0.81462     12.30409        -0.000046      0.000032      0.128836
      4.23288      0.81462     12.30409         0.000067     -0.000106      0.129090
      2.82192      3.25847     12.30409        -0.000108      0.000034      0.129672
      5.64384      3.25847     12.30409         0.000097     -0.000033      0.129825
      5.64384      1.62924     14.59314         0.000037      0.000281     -0.011955
      2.82193      1.62924     14.59315        -0.000033      0.000434     -0.011138
      7.05480      4.07309     14.59306         0.000029     -0.000331     -0.011716
      4.23289      4.07309     14.59306        -0.000077     -0.000284     -0.011533
      2.82192      4.88770     16.92028        -0.000082      0.000121     -0.007973
      5.64385      4.88770     16.92011         0.000021     -0.000038     -0.004481
      7.05481      2.44387     16.92048        -0.000174     -0.000030     -0.006569
      4.23288      2.44387     16.92042         0.000122     -0.000026     -0.005710
    total drift:                               -0.000167      0.000026     -0.035768

  FREE ENERGIE OF THE ION-ELECTRON SYSTEM (eV)
  free  energy   TOTEN  =       -82.93808732 eV

  energy  without entropy=      -82.88414911  energy(sigma->0) =      -82.92010792

volume of typ            1:    30.5 %

total charge

# of ion       s       p       d       tot
    1        0.569   0.389   7.862   8.820
    2        0.569   0.389   7.861   8.819
    3        0.569   0.389   7.862   8.819
    4        0.569   0.389   7.861   8.819
    5        0.559   0.501   7.873   8.933
    6        0.559   0.501   7.873   8.932
    7        0.559   0.501   7.873   8.932
    8        0.559   0.501   7.871   8.931
    9        0.557   0.496   7.871   8.924
   10        0.557   0.496   7.873   8.926
   11        0.557   0.496   7.871   8.924
   12        0.557   0.496   7.871   8.925
   13        0.567   0.384   7.863   8.814
   14        0.567   0.384   7.864   8.816
   15        0.567   0.384   7.864   8.815
   16        0.567   0.384   7.865   8.816
tot           9.01    7.08  125.88  141.96