 vasp.5.4.4.18Apr17-6-g9f103f2a35 (build Aug 07 2018 15:16:41) complex

 executed on             LinuxIFC date 2019.10.18  01:18:26

 INCAR:
 POTCAR:    PAW_PBE Cu 22Jun2005
 POTCAR:    PAW_PBE C 08Apr2002
 POTCAR:    PAW_PBE O 08Apr2002
 POTCAR:    PAW_PBE Cu 22Jun2005
   VRHFIN =Cu: d10 p1

   TITEL  = PAW_PBE Cu 22Jun2005
   POMASS =   63.546; ZVAL   =   11.000    mass and valenz
   ENMAX  =  295.446; ENMIN  =  221.585 eV

 POTCAR:    PAW_PBE C 08Apr2002
   VRHFIN =C: s2p2

   TITEL  = PAW_PBE C 08Apr2002
   POMASS =   12.011; ZVAL   =    4.000    mass and valenz
   ENMAX  =  400.000; ENMIN  =  300.000 eV

 POTCAR:    PAW_PBE O 08Apr2002
   VRHFIN =O: s2p4

   TITEL  = PAW_PBE O 08Apr2002
   POMASS =   16.000; ZVAL   =    6.000    mass and valenz
   ENMAX  =  400.000; ENMIN  =  300.000 eV

 Optimization of the real space projectors (new method)

 maximal supplied QI-value         = 16.25
 optimisation between [QCUT,QGAM] = [  9.43, 19.01] = [ 24.88,101.24] Ry
 Optimized for a Real-space Cutoff    1.66 Angstroem

   l    n(q)    QCUT    max X(q) W(low)/X(q) W(high)/X(q)  e(spline)
   2      8     9.426     4.610    0.15E-03    0.59E-04    0.31E-06
   2      8     9.426     8.522    0.24E-03    0.87E-04    0.54E-06
   0      9     9.426    51.609    0.44E-04    0.64E-05    0.15E-06
   0      9     9.426    27.747    0.41E-04    0.65E-05    0.15E-06
   1      9     9.426    20.408    0.73E-04    0.11E-03    0.16E-06
   1      9     9.426    13.425    0.63E-04    0.98E-04    0.15E-06
 Optimization of the real space projectors (new method)

[...]

   l    n(q)    QCUT    max X(q) W(low)/X(q) W(high)/X(q)  e(spline)
   0      8     9.551   115.676    0.39E-03    0.54E-03    0.29E-06
   0      8     9.551    87.132    0.39E-03    0.54E-03    0.28E-06
   1      7     9.551     4.429    0.35E-03    0.51E-04    0.29E-06
   1      7     9.551     2.733    0.22E-03    0.42E-04    0.31E-06
 Optimization of the real space projectors (new method)

 maximal supplied QI-value         = 24.76
 optimisation between [QCUT,QGAM] = [  9.41, 19.06] = [ 24.78,101.75] Ry
 Optimized for a Real-space Cutoff    1.48 Angstroem

   l    n(q)    QCUT    max X(q) W(low)/X(q) W(high)/X(q)  e(spline)
   0      8     9.407    20.381    0.17E-03    0.13E-03    0.41E-06
   0      8     9.407    15.268    0.19E-03    0.15E-03    0.42E-06
   1      8     9.407     5.946    0.36E-03    0.29E-03    0.38E-06
   1      8     9.407     5.382    0.31E-03    0.24E-03    0.34E-06

  PAW_PBE Cu 22Jun2005                  :
  PAW_PBE C 08Apr2002                   :
  PAW_PBE O 08Apr2002                   :

 POSCAR: Cu  C  O
  positions in cartesian coordinates
 exchange correlation table for  LEXCH =        9
   RHO(1)=    0.500       N(1)  =     2000
   RHO(2)=  100.500       N(2)  =     4000

 ion  position               nearest neighbor table
   1  0.000  0.000  0.379-   5 2.60   3 2.60   3 2.60   4 2.60   4 2.60   2 2.60   2 2.60   6 2.60
                             7 2.60
   2  0.500  0.000  0.379-   6 2.60   4 2.60   3 2.60   4 2.60   3 2.60   1 2.60   1 2.60   5 2.60
                             8 2.60
   3  0.000  0.500  0.379-   7 2.60   1 2.60   1 2.60   2 2.60   2 2.60   4 2.60   4 2.60   5 2.60
                             8 2.60
   4  0.500  0.500  0.379-   8 2.60   2 2.60   1 2.60   2 2.60   1 2.60   3 2.60   3 2.60   7 2.60
                             6 2.60
   5  0.167  0.167  0.460-  10 2.56  12 2.57   9 2.57   1 2.60   7 2.60   7 2.60   8 2.60   8 2.60
                             6 2.60   6 2.60   3 2.60   2 2.60
   6  0.667  0.167  0.460-  10 2.56   9 2.57  11 2.57   2 2.60   8 2.60   7 2.60   8 2.60   7 2.60
                             5 2.60   5 2.60   4 2.60   1 2.60
   7  0.167  0.667  0.460-  10 2.56  12 2.57  11 2.57   3 2.60   5 2.60   5 2.60   6 2.60   6 2.60
                             8 2.60   8 2.60   4 2.60   1 2.60
   8  0.667  0.667  0.460-   9 2.59  12 2.59  11 2.59   4 2.60   6 2.60   5 2.60   6 2.60   5 2.60
                             7 2.60   7 2.60   2 2.60   3 2.60
   9  0.835  0.330  0.539-  16 2.54  15 2.54   5 2.57   6 2.57  12 2.57  11 2.57   8 2.59  10 2.60
                            10 2.60  11 2.63  12 2.63  13 2.65
  10  0.333  0.333  0.538-  16 2.55  15 2.55  14 2.55   5 2.56   6 2.56   7 2.56  12 2.60   9 2.60
                            11 2.60  11 2.60   9 2.60  12 2.60
  11  0.835  0.835  0.539-  14 2.54  15 2.54   6 2.57   7 2.57   9 2.57  12 2.57   8 2.59  10 2.60
                            10 2.60  12 2.63   9 2.63  13 2.65
  12  0.330  0.835  0.539-  16 2.54  14 2.54   5 2.57   7 2.57   9 2.57  11 2.57   8 2.59  10 2.60
                            10 2.60  11 2.63   9 2.63  13 2.65
  13  0.000  0.000  0.622-  17 1.87  14 2.60  15 2.60  15 2.60  14 2.60  16 2.60  16 2.60  11 2.65
                            12 2.65   9 2.65
  14  0.499  0.001  0.617-  11 2.54  12 2.54  10 2.55  15 2.59  16 2.59  13 2.60  13 2.60  16 2.61
                            15 2.61
  15  0.001  0.499  0.617-  11 2.54   9 2.54  10 2.55  14 2.59  16 2.59  13 2.60  13 2.60  16 2.61
                            14 2.61
  16  0.499  0.499  0.617-   9 2.54  12 2.54  10 2.55  14 2.59  15 2.59  13 2.60  13 2.60  15 2.61
                            14 2.61
  17  1.000  1.000  0.693-  18 1.16  13 1.87
  18  1.000  1.000  0.737-  17 1.16

IMPORTANT INFORMATION: All symmetrisations will be switched off!
NOSYMM: (Re-)initialisation of all symmetry stuff for point group C_1.

 KPOINTS: KPOINTS created by Atomic Simulation Env

Automatic generation of k-mesh.
Space group operators:
 irot       det(A)        alpha          n_x          n_y          n_z        tau_x        tau_y        tau_z
    1     1.000000     0.000000     1.000000     0.000000     0.000000     0.000000     0.000000     0.000000

 Subroutine IBZKPT returns following result:

 Found     13 irreducible k-points:

 Following reciprocal coordinates:
            Coordinates               Weight
  0.000000  0.000000  0.000000      1.000000
  0.200000 -0.000000  0.000000      2.000000
  0.400000 -0.000000  0.000000      2.000000
  0.000000  0.200000  0.000000      2.000000
  0.200000  0.200000  0.000000      2.000000
  0.400000  0.200000  0.000000      2.000000
 -0.400000  0.200000  0.000000      2.000000
 -0.200000  0.200000  0.000000      2.000000
  0.000000  0.400000  0.000000      2.000000
  0.200000  0.400000  0.000000      2.000000
  0.400000  0.400000  0.000000      2.000000
 -0.400000  0.400000  0.000000      2.000000
 -0.200000  0.400000  0.000000      2.000000

 Following cartesian coordinates:
            Coordinates               Weight
  0.000000  0.000000  0.000000      1.000000
  0.038462 -0.022206  0.000000      2.000000
  0.076924 -0.044412  0.000000      2.000000
  0.000000  0.044412  0.000000      2.000000
  0.038462  0.022206  0.000000      2.000000
  0.076924  0.000000  0.000000      2.000000
 -0.076924  0.088824  0.000000      2.000000
 -0.038462  0.066618  0.000000      2.000000
  0.000000  0.088824  0.000000      2.000000
  0.038462  0.066618  0.000000      2.000000
  0.076924  0.044412  0.000000      2.000000
 -0.076924  0.133236  0.000000      2.000000
 -0.038462  0.111030  0.000000      2.000000

 SYSTEM =  unknown system
 POSCAR =  Cu  C  O

 Startparameter for this run:
   NWRITE =      2    write-flag & timer
   PREC   = normal    normal or accurate (medium, high low for compatibility)
   ISTART =      0    job   : 0-new  1-cont  2-samecut
   ICHARG =      2    charge: 1-file 2-atom 10-const
   ISPIN  =      1    spin polarized calculation?
   LNONCOLLINEAR =      F non collinear calculations
   LSORBIT =      F    spin-orbit coupling
   INIWAV =      1    electr: 0-lowe 1-rand  2-diag
   LASPH  =      F    aspherical Exc in radial PAW
   METAGGA=      F    non-selfconsistent MetaGGA calc.

 Electronic Relaxation 1
   ENCUT  =  350.0 eV  25.72 Ry    5.07 a.u.   7.93  7.93 40.22*2*pi/ulx,y,z
   ENINI  =  350.0     initial cutoff
   ENAUG  =  644.9 eV  augmentation charge cutoff
   NELM   =     60;   NELMIN=  2; NELMDL= -5     # of ELM steps
   EDIFF  = 0.1E-03   stopping-criterion for ELM
   LREAL  =      T    real-space projection
   NLSPLINE    = F    spline interpolate recip. space projectors
   LCOMPAT=      F    compatible to vasp.4.4
   GGA_COMPAT  = T    GGA compatible to vasp.4.4-vasp.4.6
   LMAXPAW     = -100 max onsite density
   LMAXMIX     =    2 max onsite mixed and CHGCAR
   VOSKOWN=      0    Vosko Wilk Nusair interpolation
   ROPT   =   -0.00050  -0.00050  -0.00050
 Ionic relaxation
   EDIFFG = -.3E-01   stopping-criterion for IOM
   NSW    =      0    number of steps for IOM
   NBLOCK =      1;   KBLOCK =      1    inner block; outer block
   IBRION =     -1    ionic relax: 0-MD 1-quasi-New 2-CG
   NFREE  =      1    steps in history (QN), initial steepest desc. (CG)
   ISIF   =      0    stress and relaxation
   IWAVPR =     10    prediction:  0-non 1-charg 2-wave 3-comb
   ISYM   =      0    0-nonsym 1-usesym 2-fastsym
   LCORR  =      T    Harris-Foulkes like correction to forces

   POTIM  = 0.5000    time-step for ionic-motion
   TEIN   =    0.0    initial temperature
   TEBEG  =    0.0;   TEEND  =   0.0 temperature during run
   SMASS  =  -3.00    Nose mass-parameter (am)
   estimated Nose-frequenzy (Omega)   =  0.10E-29 period in steps =****** mass=  -0.618E-27a.u.
   SCALEE = 1.0000    scale energy and forces
   NPACO  =    256;   APACO  = 16.0  distance and # of slots for P.C.
   PSTRESS=    0.0 pullay stress

  Mass of Ions in am
   POMASS =  63.55 12.01 16.00
  Ionic Valenz
   ZVAL   =  11.00  4.00  6.00
  Atomic Wigner-Seitz radii
  virtual crystal weights
   VCA    =   1.00  1.00  1.00
   NELECT =     186.0000    total number of electrons
   NUPDOWN=      -1.0000    fix difference up-down

 DOS related values:
   EMIN   =  10.00;   EMAX   =-10.00  energy-range for DOS
   EFERMI =   0.00
   ISMEAR =     1;   SIGMA  =   0.20  broadening in eV -4-tet -1-fermi 0-gaus

 Electronic relaxation 2 (details)
   IALGO  =     38    algorithm
   LDIAG  =      T    sub-space diagonalisation (order eigenvalues)
   LSUBROT=      F    optimize rotation matrix (better conditioning)
   TURBO    =      0    0=normal 1=particle mesh
   IRESTART =      0    0=no restart 2=restart with 2 vectors
   NREBOOT  =      0    no. of reboots
   NMIN     =      0    reboot dimension
   EREF     =   0.00    reference energy to select bands
   IMIX   =      4    mixing-type and parameters
     AMIX     =   0.40;   BMIX     =  1.00
     AMIX_MAG =   1.60;   BMIX_MAG =  1.00
     AMIN     =   0.10
     WC   =   100.;   INIMIX=   1;  MIXPRE=   1;  MAXMIX= -45

 Intra band minimization:
   WEIMIN = 0.0000     energy-eigenvalue tresh-hold
   EBREAK =  0.22E-06  absolut break condition
   DEPER  =   0.30     relativ break condition

   TIME   =   0.40     timestep for ELM

  volume/ion in A,a.u.               =      34.30       231.50
  Fermi-wavevector in a.u.,A,eV,Ry     =   1.097420  2.073823 16.385914  1.204331
  Thomas-Fermi vector in A             =   2.233780

 Write flags
   LWAVE        =      F    write WAVECAR
   LDOWNSAMPLE  =      F    k-point downsampling of WAVECAR
   LCHARG       =      F    write CHGCAR
[...]
 k-point  3 :   0.4000-0.0000 0.0000  plane waves:    9194
 k-point  4 :   0.0000 0.2000 0.0000  plane waves:    9166
 k-point  5 :   0.2000 0.2000 0.0000  plane waves:    9166
 k-point  6 :   0.4000 0.2000 0.0000  plane waves:    9184
 k-point  7 :  -0.4000 0.2000 0.0000  plane waves:    9208
 k-point  8 :  -0.2000 0.2000 0.0000  plane waves:    9184
 k-point  9 :   0.0000 0.4000 0.0000  plane waves:    9194
 k-point 10 :   0.2000 0.4000 0.0000  plane waves:    9184
 k-point 11 :   0.4000 0.4000 0.0000  plane waves:    9194
 k-point 12 :  -0.4000 0.4000 0.0000  plane waves:    9208
 k-point 13 :  -0.2000 0.4000 0.0000  plane waves:    9208

 maximum and minimum number of plane-waves per node :      2315     2241

 maximum number of plane-waves:      9208
 maximum index in each direction:
   IXMAX=    8   IYMAX=    7   IZMAX=   40
   IXMIN=   -8   IYMIN=   -8   IZMIN=  -40

 real space projection operators:
  max/ min on nodes  :       1302.62       1263.31

 parallel 3D FFT for wavefunctions:
    minimum data exchange during FFTs selected (reduces bandwidth)
 parallel 3D FFT for charge:
    minimum data exchange during FFTs selected (reduces bandwidth)

 Broyden mixing: mesh for mixing (old mesh)
   NGX = 15   NGY = 15   NGZ = 81
  (NGX  = 48   NGY  = 48   NGZ  =252)
  gives a total of  18225 points

 initial charge density was supplied:
 charge density of overlapping atoms calculated
 number of electron     186.0000000 magnetization
 keeping initial charge density in first step

 Maximum index for non-local projection operator          556
 Maximum index for augmentation-charges          248 (set IRDMAX)

 First call to EWALD:  gamma=   0.208
 Maximum number of real-space cells 5x 5x 1
 Maximum number of reciprocal cells 2x 2x 7

--------------------------------------- Iteration      1(   1)  ---------------------------------------

 eigenvalue-minimisations  :  2912
 total energy-change (2. order) : 0.1622216E+04  (-0.6287303E+04)
 number of electron     186.0000000 magnetization
 augmentation part      186.0000000 magnetization

 Free energy of the ion-electron system (eV)
  alpha Z        PSCENC =       333.59272159
  Ewald energy   TEWEN  =    109475.29818643
  -Hartree energ DENC   =   -131238.17202587
  -exchange      EXHF   =         0.00000000
  -V(xc)+E(xc)   XCENC  =       757.82751579
  PAW double counting   =     20119.38880325   -21798.78739505
  entropy T*S    EENTRO =        -0.01422421
  eigenvalues    EBANDS =      1155.40266433
  atomic energy  EATOM  =     22817.67997243
  Solvation  Ediel_sol  =         0.00000000
  free energy    TOTEN  =      1622.21621869 eV

  energy without entropy =     1622.23044289  energy(sigma->0) =     1622.22096009

[...]

 eigenvalue-minimisations  :  2912
 total energy-change (2. order) :-0.1465630E+04  (-0.1415565E+04)
 number of electron     186.0000000 magnetization
 augmentation part      186.0000000 magnetization

[...]

 Broyden mixing:
  rms(total) = 0.30600E+01    rms(broyden)= 0.30591E+01
  rms(prec ) = 0.32004E+01
  weight for this iteration     100.00

[...]

 eigenvalues of (default mixing * dielectric matrix)
  average eigenvalue GAMMA=   0.6297
  0.6297

[...]

 eigenvalue-minimisations  :  3432
 total energy-change (2. order) : 0.1604980E-03  (-0.1273220E-03)
 number of electron     186.0000870 magnetization
 augmentation part      113.2087897 magnetization

[...]

 Broyden mixing:
  rms(total) = 0.59448E-02    rms(broyden)= 0.59430E-02
  rms(prec ) = 0.65812E-02
  weight for this iteration     100.00

 eigenvalues of (default mixing * dielectric matrix)
  average eigenvalue GAMMA=   1.0184
  2.5303  2.5303  2.3342  0.8757  0.8757  0.7550  0.7009  0.7009  0.2185  0.5632
  0.4307  0.3517  0.3716

[...]

--------------------------------------- Iteration      1(  19)  ---------------------------------------

 eigenvalue-minimisations  :  2080
 total energy-change (2. order) :-0.7465249E-04  (-0.2111448E-04)
 number of electron     186.0000870 magnetization
 augmentation part      113.1921882 magnetization

 Free energy of the ion-electron system (eV)
  alpha Z        PSCENC =       333.59272159
  Ewald energy   TEWEN  =    109475.29818643
  -Hartree energ DENC   =   -131024.73457363
  -exchange      EXHF   =         0.00000000
  -V(xc)+E(xc)   XCENC  =       743.87896942
  PAW double counting   =     21590.73479117   -23301.59960320
  entropy T*S    EENTRO =         0.02285550
  eigenvalues    EBANDS =      -698.64395605
  atomic energy  EATOM  =     22817.67997243
  Solvation  Ediel_sol  =         0.00000000
  free energy    TOTEN  =       -63.77063635 eV

  energy without entropy =      -63.79349184  energy(sigma->0) =      -63.77825484

 average (electrostatic) potential at core
  the test charge radii are     0.9430  0.6991  0.7215
  (the norm of the test charge is              1.0000)
       1 -71.6613       2 -71.6854       3 -71.6856       4 -71.6855       5 -71.8436
       6 -71.8437       7 -71.8436       8 -71.8770       9 -71.8092      10 -71.8402
      11 -71.8092      12 -71.8092      13 -72.6516      14 -71.6553      15 -71.6554
      16 -71.6555      17 -58.5110      18 -79.6540

 E-fermi :  -0.5283     XC(G=0):  -5.0976     alpha+bet : -4.3918

 k-point     1 :       0.0000    0.0000    0.0000
  band No.  band energies     occupation
      1     -25.1026      2.00000
      2     -10.6250      2.00000
      3      -9.1136      2.00000
      4      -8.2133      2.00000
      5      -7.6829      2.00000
      6      -7.6823      2.00000
      7      -7.4343      2.00000
      8      -6.1502      2.00000
      9      -5.4094      2.00000
     10      -5.1383      2.00000
     11      -5.1382      2.00000
     12      -5.0839      2.00000
     13      -5.0062      2.00000
     14      -5.0061      2.00000
     15      -4.9749      2.00000
     16      -4.7655      2.00000
     17      -4.7654      2.00000
     18      -4.5936      2.00000
     19      -4.5890      2.00000
     20      -4.5890      2.00000
     21      -4.5878      2.00000
     22      -4.5878      2.00000
     23      -4.5606      2.00000
     24      -4.5349      2.00000
     25      -4.3035      2.00000
     26      -4.3034      2.00000
     27      -4.1688      2.00000
     28      -3.8637      2.00000
     29      -3.8637      2.00000
     30      -3.6273      2.00000
     31      -3.4914      2.00000
     32      -3.4800      2.00000
     33      -3.4799      2.00000
     34      -3.4115      2.00000
     35      -3.3950      2.00000
     36      -3.3844      2.00000
     37      -3.3843      2.00000
     38      -3.3289      2.00000
     39      -3.3288      2.00000
     40      -3.2958      2.00000
     41      -3.2958      2.00000
     42      -3.2754      2.00000
     43      -3.2716      2.00000
     44      -3.2714      2.00000
     45      -3.1742      2.00000
     46      -3.1331      2.00000
     47      -3.1329      2.00000
     48      -3.1092      2.00000
     49      -3.1092      2.00000
     50      -3.0422      2.00000
     51      -3.0422      2.00000
     52      -3.0283      2.00000
     53      -2.8484      2.00000
     54      -2.8414      2.00000
     55      -2.8414      2.00000
     56      -2.8378      2.00000
     57      -2.6494      2.00000
     58      -2.6494      2.00000
     59      -2.5694      2.00000
     60      -2.5694      2.00000
[...]
     98       0.5301     -0.00000
     99       0.7504     -0.00000
    100       0.9466     -0.00000
    101       0.9467     -0.00000
    102       1.0199     -0.00000
    103       2.3373     -0.00000
    104       2.3379     -0.00000
    105       3.0348     -0.00000
    106       3.5054     -0.00000
    107       3.6212     -0.00000
    108       3.6212     -0.00000
    109       3.6296     -0.00000
    110       4.2614     -0.00000
    111       4.2617     -0.00000
    112       4.3444     -0.00000

[...]

 k-point    13 :      -0.2000    0.4000    0.0000
  band No.  band energies     occupation
      1     -25.1036      2.00000
      2     -10.5757      2.00000
      3      -7.9551      2.00000
      4      -7.7573      2.00000
      5      -7.7181      2.00000
      6      -7.0845      2.00000
      7      -6.9942      2.00000
      8      -6.0487      2.00000
      9      -5.9565      2.00000
     10      -5.8529      2.00000
     11      -5.1530      2.00000
     12      -4.8558      2.00000
     13      -4.8259      2.00000
     14      -4.5277      2.00000
     15      -4.4712      2.00000
     16      -4.4153      2.00000
     17      -4.4078      2.00000
     18      -4.3553      2.00000
     19      -4.3015      2.00000
     20      -4.2378      2.00000
     21      -4.1901      2.00000
     22      -4.1179      2.00000
     23      -4.0881      2.00000
     24      -4.0585      2.00000
     25      -4.0525      2.00000
     26      -4.0367      2.00000
     27      -4.0190      2.00000
     28      -3.9857      2.00000
     29      -3.9469      2.00000
     30      -3.8724      2.00000
     31      -3.8531      2.00000
     32      -3.8294      2.00000
     33      -3.7967      2.00000
     34      -3.7737      2.00000
     35      -3.7384      2.00000
     36      -3.6934      2.00000
     37      -3.6472      2.00000
     38      -3.5911      2.00000
     39      -3.5684      2.00000
     40      -3.5092      2.00000
     41      -3.4875      2.00000
     42      -3.4409      2.00000
     43      -3.4382      2.00000
     44      -3.4053      2.00000
     45      -3.3876      2.00000
     46      -3.3688      2.00000
     47      -3.3107      2.00000
     48      -3.2926      2.00000
     49      -3.2240      2.00000
     50      -3.2098      2.00000
     51      -3.1695      2.00000
     52      -3.1405      2.00000
     53      -3.0928      2.00000
     54      -3.0816      2.00000
     55      -3.0577      2.00000
     56      -3.0186      2.00000
     57      -2.9674      2.00000
     58      -2.8603      2.00000
     59      -2.8355      2.00000
     60      -2.8069      2.00000
[...]
     98       1.4120     -0.00000
     99       1.7073     -0.00000
    100       2.0442     -0.00000
    101       2.5086     -0.00000
    102       2.9817     -0.00000
    103       3.2869     -0.00000
    104       3.7214     -0.00000
    105       4.0727     -0.00000
    106       4.1577     -0.00000
    107       4.6770     -0.00000
    108       5.0067      0.00000
    109       5.0899      0.00000
    110       5.2217      0.00000
    111       5.4022      0.00000
    112       5.5681      0.00000

 soft charge-density along one line, spin component           1
         0         1         2         3         4         5         6         7         8         9
 total charge-density along one line

------------------------ aborting loop because EDIFF is reached ----------------------------------------

 VOLUME and BASIS-vectors are now :
  energy-cutoff  :      350.00
  volume of cell :      617.47
      direct lattice vectors                 reciprocal lattice vectors
     5.199963631  0.000000000  0.000000000     0.192309037 -0.111029674  0.000000000
     2.599981815  4.503300603  0.000000000     0.000000000  0.222059349  0.000000000
     0.000000000  0.000000000 26.368628788     0.000000000  0.000000000  0.037923853

  length of vectors
     5.199963631  5.199963631 26.368628788     0.222059349  0.222059349  0.037923853

 FORCES acting on ions
    electron-ion (+dipol)            ewald-force                    non-local-force                 convergence-correction
   0.831E-03 0.630E-03 0.394E+04   -.890E-03 -.514E-03 -.394E+04   -.134E-03 -.643E-04 -.126E+01   0.191E-03 -.576E-04 0.119E-01
   -.721E-03 0.373E+00 0.394E+04   0.872E-03 -.251E+00 -.394E+04   0.359E-04 -.998E-01 -.248E+01   -.194E-03 0.168E-02 0.106E-01
   0.323E+00 -.187E+00 0.394E+04   -.217E+00 0.126E+00 -.394E+04   -.865E-01 0.499E-01 -.248E+01   0.151E-02 -.924E-03 0.109E-01
   -.323E+00 -.187E+00 0.394E+04   0.217E+00 0.125E+00 -.394E+04   0.865E-01 0.499E-01 -.248E+01   -.147E-02 -.683E-03 0.107E-01
   0.105E+01 0.605E+00 0.149E+04   -.126E+01 -.728E+00 -.149E+04   0.231E+00 0.133E+00 -.109E+01   -.342E-02 -.216E-02 0.244E-01
   -.105E+01 0.612E+00 0.149E+04   0.126E+01 -.736E+00 -.149E+04   -.231E+00 0.133E+00 -.109E+01   0.347E-02 -.207E-02 0.243E-01
   0.497E-02 -.122E+01 0.149E+04   -.495E-02 0.146E+01 -.149E+04   -.127E-03 -.266E+00 -.109E+01   0.747E-04 0.413E-02 0.243E-01
   -.191E-02 -.128E-02 0.148E+04   0.207E-02 0.119E-02 -.148E+04   -.860E-04 0.209E-04 -.903E+00   -.858E-04 0.108E-03 0.202E-01
   0.289E-01 -.268E+01 -.101E+04   -.285E-01 0.263E+01 0.101E+04   -.653E-03 0.388E-01 0.399E+00   0.873E-04 -.810E-02 0.239E+00
   -.181E-01 -.104E-01 -.981E+03   0.180E-01 0.104E-01 0.979E+03   0.350E-03 0.210E-03 0.135E+01   -.747E-04 -.146E-03 0.242E+00
   0.230E+01 0.133E+01 -.101E+04   -.225E+01 -.130E+01 0.101E+04   -.331E-01 -.191E-01 0.399E+00   0.686E-02 0.410E-02 0.239E+00
   -.231E+01 0.137E+01 -.101E+04   0.226E+01 -.134E+01 0.101E+04   0.333E-01 -.200E-01 0.399E+00   -.683E-02 0.418E-02 0.239E+00
   0.636E-02 0.359E-02 -.345E+04   -.638E-02 -.370E-02 0.344E+04   -.328E-04 -.407E-04 0.143E+01   0.472E-04 0.130E-03 -.518E-01
   -.403E-02 0.500E+01 -.347E+04   0.399E-02 -.501E+01 0.347E+04   -.193E-04 -.125E-02 0.331E+01   -.176E-04 0.197E-02 -.387E-01
   0.433E+01 -.251E+01 -.347E+04   -.434E+01 0.251E+01 0.347E+04   -.102E-02 0.604E-03 0.331E+01   0.158E-02 -.108E-02 -.387E-01
   -.434E+01 -.250E+01 -.347E+04   0.434E+01 0.251E+01 0.347E+04   0.107E-02 0.649E-03 0.331E+01   -.161E-02 -.104E-02 -.389E-01
   -.392E-03 -.220E-03 -.144E+04   0.538E-03 0.299E-03 0.142E+04   -.151E-03 -.734E-04 0.191E+02   0.103E-04 0.120E-04 0.856E-02
   0.177E-02 0.999E-03 -.236E+04   -.227E-02 -.130E-02 0.242E+04   0.465E-03 0.301E-03 -.597E+02   0.145E-04 -.881E-05 0.428E-01
   -.244E-03 -.116E-03 0.386E+02   -.207E-13 -.243E-13 0.000E+00   0.105E-03 0.133E-03 -.396E+02   0.149E-03 0.229E-04 0.980E+00

 POSITION                                       TOTAL-FORCE (eV/Angst)
      0.00000      0.00000     10.00000        -0.000004     -0.000008      0.103705
      2.59998      0.00000     10.00000        -0.000008      0.023955      0.034423
      1.29999      2.25165     10.00000         0.020738     -0.011980      0.034427
      3.89997      2.25165     10.00000        -0.020720     -0.011960      0.034614
      1.29999      0.75055     12.12288         0.013044      0.007494     -0.083744
      3.89997      0.75055     12.12288        -0.012938      0.007380     -0.083440
      2.59998      3.00220     12.12288        -0.000036     -0.014867     -0.083424
      5.19996      3.00220     12.12288        -0.000015      0.000040      0.035784
      5.20003      1.48647     14.21740        -0.000154     -0.020360     -0.003534
      2.59997      1.50109     14.19527         0.000126      0.000082     -0.009122
      6.51254      3.76002     14.21749         0.017786      0.010257     -0.003547
      3.88734      3.76012     14.21740        -0.017714      0.010049     -0.003537
      0.00002      0.00001     16.41410        -0.000009     -0.000018     -0.038800
      2.59998      0.00486     16.25824        -0.000076     -0.008946     -0.002750
      1.30420      2.24922     16.25824        -0.007785      0.004391     -0.002727
      3.89576      2.24922     16.25791         0.007788      0.004485     -0.000399
      7.79994      4.50330     18.28167         0.000005      0.000016      0.045674
      7.79993      4.50329     19.44396        -0.000028     -0.000009      0.026395
    total drift:                                0.000010      0.000040     -0.053693

  FREE ENERGIE OF THE ION-ELECTRON SYSTEM (eV)
  free  energy   TOTEN  =       -63.77063635 eV

  energy  without entropy=      -63.79349184  energy(sigma->0) =      -63.77825484

volume of typ            1:    36.6 %

[...]

volume of typ            3:     0.3 %

total charge

# of ion       s       p       d       tot
    1        0.665   0.511   9.476  10.652
    2        0.656   0.511   9.480  10.647
    3        0.656   0.511   9.480  10.647
    4        0.656   0.511   9.480  10.647
    5        0.664   0.679   9.508  10.850
    6        0.664   0.679   9.508  10.850
    7        0.664   0.679   9.508  10.850
    8        0.657   0.678   9.501  10.837
    9        0.663   0.700   9.506  10.869
   10        0.676   0.702   9.510  10.888
   11        0.663   0.700   9.506  10.869
   12        0.663   0.700   9.506  10.869
   13        0.676   0.888   9.486  11.050
   14        0.665   0.532   9.500  10.697
   15        0.665   0.532   9.500  10.697
   16        0.665   0.533   9.500  10.697
   17        0.860   1.368   0.084   2.312
   18        1.443   3.205   0.044   4.692
tot          12.92   14.62  152.08  179.62