 vasp.5.4.4.18Apr17-6-g9f103f2a35 (build Aug 07 2018 15:16:41) complex

 executed on             LinuxIFC date 2019.10.18  01:18:29

 INCAR:
 POTCAR:    PAW_PBE Pt 04Feb2005
 POTCAR:    PAW_PBE C 08Apr2002
 POTCAR:    PAW_PBE O 08Apr2002
 POTCAR:    PAW_PBE Pt 04Feb2005
   VRHFIN =Pt: s1d9

   TITEL  = PAW_PBE Pt 04Feb2005
   POMASS =  195.080; ZVAL   =   10.000    mass and valenz
   ENMAX  =  230.283; ENMIN  =  172.712 eV

 POTCAR:    PAW_PBE C 08Apr2002
   VRHFIN =C: s2p2

   TITEL  = PAW_PBE C 08Apr2002
   POMASS =   12.011; ZVAL   =    4.000    mass and valenz
   ENMAX  =  400.000; ENMIN  =  300.000 eV

 POTCAR:    PAW_PBE O 08Apr2002
   VRHFIN =O: s2p4

   TITEL  = PAW_PBE O 08Apr2002
   POMASS =   16.000; ZVAL   =    6.000    mass and valenz
   ENMAX  =  400.000; ENMIN  =  300.000 eV

 Optimization of the real space projectors (new method)

 maximal supplied QI-value         = 14.36
 optimisation between [QCUT,QGAM] = [  9.48, 19.10] = [ 25.16,102.17] Ry
 Optimized for a Real-space Cutoff    1.57 Angstroem

   l    n(q)    QCUT    max X(q) W(low)/X(q) W(high)/X(q)  e(spline)
   2      8     9.479    66.195    0.35E-03    0.53E-04    0.87E-07
   2      8     9.479    64.643    0.35E-03    0.57E-04    0.91E-07
   0      9     9.479    95.520    0.50E-04    0.62E-04    0.81E-07
   0      9     9.479    63.403    0.49E-04    0.60E-04    0.78E-07
   1      8     9.479    19.961    0.10E-03    0.87E-04    0.11E-06
   1      8     9.479    13.289    0.88E-04    0.71E-04    0.97E-07
 Optimization of the real space projectors (new method)

[...]

   l    n(q)    QCUT    max X(q) W(low)/X(q) W(high)/X(q)  e(spline)
   0      8     9.551   115.676    0.39E-03    0.54E-03    0.29E-06
   0      8     9.551    87.132    0.39E-03    0.54E-03    0.28E-06
   1      7     9.551     4.429    0.35E-03    0.51E-04    0.29E-06
   1      7     9.551     2.733    0.22E-03    0.42E-04    0.31E-06
 Optimization of the real space projectors (new method)

 maximal supplied QI-value         = 24.76
 optimisation between [QCUT,QGAM] = [  9.41, 19.06] = [ 24.78,101.75] Ry
 Optimized for a Real-space Cutoff    1.48 Angstroem

   l    n(q)    QCUT    max X(q) W(low)/X(q) W(high)/X(q)  e(spline)
   0      8     9.407    20.381    0.17E-03    0.13E-03    0.41E-06
   0      8     9.407    15.268    0.19E-03    0.15E-03    0.42E-06
   1      8     9.407     5.946    0.36E-03    0.29E-03    0.38E-06
   1      8     9.407     5.382    0.31E-03    0.24E-03    0.34E-06

  PAW_PBE Pt 04Feb2005                  :
  PAW_PBE C 08Apr2002                   :
  PAW_PBE O 08Apr2002                   :

 POSCAR: Pt  C  O
  positions in cartesian coordinates
 exchange correlation table for  LEXCH =        9
   RHO(1)=    0.500       N(1)  =     2000
   RHO(2)=  100.500       N(2)  =     4000

 ion  position               nearest neighbor table
   1  0.000  0.000  0.372-   5 2.82   6 2.82   7 2.82   3 2.82   3 2.82   4 2.82   4 2.82   2 2.82
                             2 2.82
   2  0.500  0.000  0.372-   6 2.82   5 2.82   8 2.82   4 2.82   3 2.82   4 2.82   3 2.82   1 2.82
                             1 2.82
   3  0.000  0.500  0.372-   7 2.82   5 2.82   8 2.82   1 2.82   1 2.82   2 2.82   2 2.82   4 2.82
                             4 2.82
   4  0.500  0.500  0.372-   8 2.82   7 2.82   6 2.82   2 2.82   1 2.82   2 2.82   1 2.82   3 2.82
                             3 2.82
   5  0.167  0.167  0.457-  10 2.81   1 2.82   3 2.82   2 2.82   7 2.82   7 2.82   8 2.82   8 2.82
                             6 2.82   6 2.82  12 2.83   9 2.83
   6  0.667  0.167  0.457-  10 2.81   2 2.82   4 2.82   1 2.82   8 2.82   7 2.82   8 2.82   7 2.82
                             5 2.82   5 2.82  11 2.83   9 2.83
   7  0.167  0.667  0.457-  10 2.81   3 2.82   4 2.82   1 2.82   5 2.82   5 2.82   6 2.82   6 2.82
                             8 2.82   8 2.82  11 2.83  12 2.83
   8  0.667  0.667  0.457-   9 2.82  12 2.82  11 2.82   4 2.82   2 2.82   3 2.82   6 2.82   5 2.82
                             6 2.82   5 2.82   7 2.82   7 2.82
   9  0.832  0.337  0.543-  13 2.77  12 2.79  11 2.79   8 2.82  10 2.82  10 2.82   5 2.83   6 2.83
                            11 2.85  12 2.85  15 2.90  16 2.90
  10  0.333  0.333  0.542-   7 2.81   6 2.81   5 2.81  12 2.82   9 2.82  11 2.82  11 2.82   9 2.82
                            12 2.82  15 2.93  14 2.93  16 2.93
  11  0.832  0.832  0.543-  13 2.77   9 2.79  12 2.79   8 2.82  10 2.82  10 2.82   7 2.83   6 2.83
                            12 2.85   9 2.85  15 2.90  14 2.90
  12  0.337  0.832  0.543-  13 2.77   9 2.79  11 2.79   8 2.82  10 2.82  10 2.82   5 2.83   7 2.83
                            11 2.85   9 2.85  14 2.90  16 2.90
  13  1.000  1.000  0.626-  11 2.77  12 2.77   9 2.77  14 2.83  15 2.83  16 2.83  16 2.83  15 2.83
                            14 2.83
  14  0.501  0.998  0.632-  17 2.12  15 2.80  16 2.80  13 2.83  13 2.83  16 2.84  15 2.84  12 2.90
                            11 2.90  10 2.93
  15  0.998  0.501  0.632-  17 2.12  14 2.80  16 2.80  13 2.83  13 2.83  16 2.84  14 2.84   9 2.90
                            11 2.90  10 2.93
  16  0.501  0.501  0.632-  17 2.12  14 2.80  15 2.80  13 2.83  13 2.83  15 2.84  14 2.84  12 2.90
                             9 2.90  10 2.93
  17  0.333  0.333  0.682-  18 1.20  15 2.12  14 2.12  16 2.12
  18  0.333  0.333  0.727-  17 1.20

IMPORTANT INFORMATION: All symmetrisations will be switched off!
NOSYMM: (Re-)initialisation of all symmetry stuff for point group C_1.

 KPOINTS: KPOINTS created by Atomic Simulation Env

Automatic generation of k-mesh.
Space group operators:
 irot       det(A)        alpha          n_x          n_y          n_z        tau_x        tau_y        tau_z
    1     1.000000     0.000000     1.000000     0.000000     0.000000     0.000000     0.000000     0.000000

 Subroutine IBZKPT returns following result:

 Found     13 irreducible k-points:

 Following reciprocal coordinates:
            Coordinates               Weight
  0.000000  0.000000  0.000000      1.000000
  0.200000  0.000000  0.000000      2.000000
  0.400000  0.000000  0.000000      2.000000
  0.000000  0.200000  0.000000      2.000000
  0.200000  0.200000  0.000000      2.000000
  0.400000  0.200000  0.000000      2.000000
 -0.400000  0.200000  0.000000      2.000000
 -0.200000  0.200000  0.000000      2.000000
  0.000000  0.400000  0.000000      2.000000
  0.200000  0.400000  0.000000      2.000000
  0.400000  0.400000  0.000000      2.000000
 -0.400000  0.400000  0.000000      2.000000
 -0.200000  0.400000  0.000000      2.000000

 Following cartesian coordinates:
            Coordinates               Weight
  0.000000  0.000000  0.000000      1.000000
  0.035437 -0.020459  0.000000      2.000000
  0.070874 -0.040919  0.000000      2.000000
  0.000000  0.040919  0.000000      2.000000
  0.035437  0.020459  0.000000      2.000000
  0.070874  0.000000  0.000000      2.000000
 -0.070874  0.081838  0.000000      2.000000
 -0.035437  0.061378  0.000000      2.000000
  0.000000  0.081838  0.000000      2.000000
  0.035437  0.061378  0.000000      2.000000
  0.070874  0.040919  0.000000      2.000000
 -0.070874  0.122757  0.000000      2.000000
 -0.035437  0.102297  0.000000      2.000000

 SYSTEM =  unknown system
 POSCAR =  Pt  C  O

 Startparameter for this run:
   NWRITE =      2    write-flag & timer
   PREC   = normal    normal or accurate (medium, high low for compatibility)
   ISTART =      0    job   : 0-new  1-cont  2-samecut
   ICHARG =      2    charge: 1-file 2-atom 10-const
   ISPIN  =      1    spin polarized calculation?
   LNONCOLLINEAR =      F non collinear calculations
   LSORBIT =      F    spin-orbit coupling
   INIWAV =      1    electr: 0-lowe 1-rand  2-diag
   LASPH  =      F    aspherical Exc in radial PAW
   METAGGA=      F    non-selfconsistent MetaGGA calc.

 Electronic Relaxation 1
   ENCUT  =  350.0 eV  25.72 Ry    5.07 a.u.   8.61  8.61 41.05*2*pi/ulx,y,z
   ENINI  =  350.0     initial cutoff
   ENAUG  =  644.9 eV  augmentation charge cutoff
   NELM   =     60;   NELMIN=  2; NELMDL= -5     # of ELM steps
   EDIFF  = 0.1E-03   stopping-criterion for ELM
   LREAL  =      T    real-space projection
   NLSPLINE    = F    spline interpolate recip. space projectors
   LCOMPAT=      F    compatible to vasp.4.4
   GGA_COMPAT  = T    GGA compatible to vasp.4.4-vasp.4.6
   LMAXPAW     = -100 max onsite density
   LMAXMIX     =    2 max onsite mixed and CHGCAR
   VOSKOWN=      0    Vosko Wilk Nusair interpolation
   ROPT   =   -0.00050  -0.00050  -0.00050
 Ionic relaxation
   EDIFFG = -.3E-01   stopping-criterion for IOM
   NSW    =      0    number of steps for IOM
   NBLOCK =      1;   KBLOCK =      1    inner block; outer block
   IBRION =     -1    ionic relax: 0-MD 1-quasi-New 2-CG
   NFREE  =      1    steps in history (QN), initial steepest desc. (CG)
   ISIF   =      0    stress and relaxation
   IWAVPR =     10    prediction:  0-non 1-charg 2-wave 3-comb
   ISYM   =      0    0-nonsym 1-usesym 2-fastsym
   LCORR  =      T    Harris-Foulkes like correction to forces

   POTIM  = 0.5000    time-step for ionic-motion
   TEIN   =    0.0    initial temperature
   TEBEG  =    0.0;   TEEND  =   0.0 temperature during run
   SMASS  =  -3.00    Nose mass-parameter (am)
   estimated Nose-frequenzy (Omega)   =  0.10E-29 period in steps =****** mass=  -0.728E-27a.u.
   SCALEE = 1.0000    scale energy and forces
   NPACO  =    256;   APACO  = 16.0  distance and # of slots for P.C.
   PSTRESS=    0.0 pullay stress

  Mass of Ions in am
   POMASS = 195.08 12.01 16.00
  Ionic Valenz
   ZVAL   =  10.00  4.00  6.00
  Atomic Wigner-Seitz radii
  virtual crystal weights
   VCA    =   1.00  1.00  1.00
   NELECT =     170.0000    total number of electrons
   NUPDOWN=      -1.0000    fix difference up-down

 DOS related values:
   EMIN   =  10.00;   EMAX   =-10.00  energy-range for DOS
   EFERMI =   0.00
   ISMEAR =     1;   SIGMA  =   0.20  broadening in eV -4-tet -1-fermi 0-gaus

 Electronic relaxation 2 (details)
   IALGO  =     38    algorithm
   LDIAG  =      T    sub-space diagonalisation (order eigenvalues)
   LSUBROT=      F    optimize rotation matrix (better conditioning)
   TURBO    =      0    0=normal 1=particle mesh
   IRESTART =      0    0=no restart 2=restart with 2 vectors
   NREBOOT  =      0    no. of reboots
   NMIN     =      0    reboot dimension
   EREF     =   0.00    reference energy to select bands
   IMIX   =      4    mixing-type and parameters
     AMIX     =   0.40;   BMIX     =  1.00
     AMIX_MAG =   1.60;   BMIX_MAG =  1.00
     AMIN     =   0.10
     WC   =   100.;   INIMIX=   1;  MIXPRE=   1;  MAXMIX= -45

 Intra band minimization:
   WEIMIN = 0.0000     energy-eigenvalue tresh-hold
   EBREAK =  0.24E-06  absolut break condition
   DEPER  =   0.30     relativ break condition

   TIME   =   0.40     timestep for ELM

  volume/ion in A,a.u.               =      41.24       278.33
  Fermi-wavevector in a.u.,A,eV,Ry     =   1.001569  1.892691 13.648550  1.003140
  Thomas-Fermi vector in A             =   2.133999

 Write flags
   LWAVE        =      F    write WAVECAR
   LDOWNSAMPLE  =      F    k-point downsampling of WAVECAR
[...]
 k-point  3 :   0.4000 0.0000 0.0000  plane waves:   11035
 k-point  4 :   0.0000 0.2000 0.0000  plane waves:   11057
 k-point  5 :   0.2000 0.2000 0.0000  plane waves:   11057
 k-point  6 :   0.4000 0.2000 0.0000  plane waves:   11021
 k-point  7 :  -0.4000 0.2000 0.0000  plane waves:   11028
 k-point  8 :  -0.2000 0.2000 0.0000  plane waves:   11021
 k-point  9 :   0.0000 0.4000 0.0000  plane waves:   11035
 k-point 10 :   0.2000 0.4000 0.0000  plane waves:   11021
 k-point 11 :   0.4000 0.4000 0.0000  plane waves:   11035
 k-point 12 :  -0.4000 0.4000 0.0000  plane waves:   11028
 k-point 13 :  -0.2000 0.4000 0.0000  plane waves:   11028

 maximum and minimum number of plane-waves per node :      2799     2729

 maximum number of plane-waves:     11069
 maximum index in each direction:
   IXMAX=    9   IYMAX=    8   IZMAX=   41
   IXMIN=   -9   IYMIN=   -9   IZMIN=  -41

 real space projection operators:
  max/ min on nodes  :       1227.64       1217.97

 parallel 3D FFT for wavefunctions:
    minimum data exchange during FFTs selected (reduces bandwidth)
 parallel 3D FFT for charge:
    minimum data exchange during FFTs selected (reduces bandwidth)

 Broyden mixing: mesh for mixing (old mesh)
   NGX = 17   NGY = 17   NGZ = 83
  (NGX  = 56   NGY  = 56   NGZ  =252)
  gives a total of  23987 points

 initial charge density was supplied:
 charge density of overlapping atoms calculated
 number of electron     170.0000000 magnetization
 keeping initial charge density in first step

 Maximum index for non-local projection operator          527
 Maximum index for augmentation-charges          704 (set IRDMAX)

 First call to EWALD:  gamma=   0.196
 Maximum number of real-space cells 5x 5x 1
 Maximum number of reciprocal cells 2x 2x 7

--------------------------------------- Iteration      1(   1)  ---------------------------------------

 eigenvalue-minimisations  :  2728
 total energy-change (2. order) : 0.1016461E+04  (-0.6079962E+04)
 number of electron     170.0000000 magnetization
 augmentation part      170.0000000 magnetization

 Free energy of the ion-electron system (eV)
  alpha Z        PSCENC =       358.28533891
  Ewald energy   TEWEN  =     72276.53582016
  -Hartree energ DENC   =    -85033.78822943
  -exchange      EXHF   =         0.00000000
  -V(xc)+E(xc)   XCENC  =        88.38362791
  PAW double counting   =     11602.90403888   -11137.02028253
  entropy T*S    EENTRO =        -0.00772320
  eigenvalues    EBANDS =       629.09276230
  atomic energy  EATOM  =     12232.07567246
  Solvation  Ediel_sol  =         0.00000000
  free energy    TOTEN  =      1016.46102546 eV

  energy without entropy =     1016.46874866  energy(sigma->0) =     1016.46359986

[...]

 eigenvalue-minimisations  :  3352
 total energy-change (2. order) :-0.1039088E+04  (-0.9654349E+03)
 number of electron     170.0000000 magnetization
 augmentation part      170.0000000 magnetization

[...]

 Broyden mixing:
  rms(total) = 0.40121E+01    rms(broyden)= 0.40116E+01
  rms(prec ) = 0.40751E+01
  weight for this iteration     100.00

[...]

 eigenvalues of (default mixing * dielectric matrix)
  average eigenvalue GAMMA=   1.0910
  1.0910

[...]

 eigenvalue-minimisations  :  2696
 total energy-change (2. order) : 0.1712406E-03  (-0.6429151E-04)
 number of electron     169.9999903 magnetization
 augmentation part       50.6438161 magnetization

 Broyden mixing:
  rms(total) = 0.66768E-02    rms(broyden)= 0.66742E-02
  rms(prec ) = 0.84142E-02
  weight for this iteration     100.00

 eigenvalues of (default mixing * dielectric matrix)
  average eigenvalue GAMMA=   0.8657
  2.3423  1.8629  1.8629  1.2463  1.2463  0.6875  0.6875  0.7710  0.6424  0.1516
  0.3983  0.3519  0.2176  0.2686  0.2488

[...]

--------------------------------------- Iteration      1(  21)  ---------------------------------------

 eigenvalue-minimisations  :  1760
 total energy-change (2. order) :-0.7134575E-04  (-0.1963771E-04)
 number of electron     169.9999903 magnetization
 augmentation part       50.6438161 magnetization

 Free energy of the ion-electron system (eV)
  alpha Z        PSCENC =       358.28533891
  Ewald energy   TEWEN  =     72276.53582016
  -Hartree energ DENC   =    -84862.48058856
  -exchange      EXHF   =         0.00000000
  -V(xc)+E(xc)   XCENC  =        84.63776588
  PAW double counting   =     14973.17697617   -14547.89221935
  entropy T*S    EENTRO =        -0.01807407
  eigenvalues    EBANDS =      -613.09339459
  atomic energy  EATOM  =     12232.07567246
  Solvation  Ediel_sol  =         0.00000000
  free energy    TOTEN  =       -98.77270301 eV

  energy without entropy =      -98.75462893  energy(sigma->0) =      -98.76667832

 average (electrostatic) potential at core
  the test charge radii are     1.2059  0.6991  0.7215
  (the norm of the test charge is              1.0000)
       1 -73.8017       2 -73.7768       3 -73.7762       4 -73.7763       5 -74.1387
       6 -74.1386       7 -74.1376       8 -74.2580       9 -74.1503      10 -74.0980
      11 -74.1498      12 -74.1497      13 -73.8118      14 -74.0207      15 -74.0207
      16 -74.0207      17 -57.2371      18 -77.0255

 E-fermi :  -0.1631     XC(G=0):  -5.4724     alpha+bet : -5.6359

 k-point     1 :       0.0000    0.0000    0.0000
  band No.  band energies     occupation
      1     -22.3988      2.00000
      2     -10.8754      2.00000
      3      -9.1111      2.00000
      4      -7.8013      2.00000
      5      -6.9965      2.00000
      6      -6.7849      2.00000
      7      -6.7497      2.00000
      8      -6.7496      2.00000
      9      -6.5061      2.00000
     10      -6.4373      2.00000
     11      -6.3104      2.00000
     12      -6.3104      2.00000
     13      -6.2805      2.00000
     14      -6.2804      2.00000
     15      -6.1799      2.00000
     16      -5.8804      2.00000
     17      -5.8326      2.00000
     18      -5.8326      2.00000
     19      -5.6738      2.00000
     20      -5.6737      2.00000
     21      -5.6502      2.00000
     22      -5.3870      2.00000
     23      -5.3870      2.00000
     24      -5.0525      2.00000
     25      -4.7855      2.00000
     26      -4.7855      2.00000
     27      -4.6168      2.00000
     28      -3.8341      2.00000
     29      -3.8341      2.00000
     30      -3.7762      2.00000
     31      -3.7396      2.00000
     32      -3.7396      2.00000
     33      -3.7116      2.00000
     34      -3.5837      2.00000
     35      -3.5150      2.00000
     36      -3.5150      2.00000
     37      -3.3978      2.00000
     38      -3.3978      2.00000
     39      -3.2850      2.00000
     40      -3.2850      2.00000
     41      -3.1942      2.00000
     42      -3.1941      2.00000
     43      -3.1651      2.00000
     44      -3.1054      2.00000
     45      -3.0356      2.00000
     46      -3.0356      2.00000
     47      -2.7094      2.00000
     48      -2.6644      2.00000
     49      -2.6643      2.00000
     50      -2.5019      2.00000
     51      -2.3358      2.00000
     52      -2.3358      2.00000
     53      -2.1991      2.00000
     54      -2.1061      2.00000
     55      -2.1061      2.00000
     56      -1.9353      2.00000
     57      -1.6708      2.00000
     58      -1.6708      2.00000
     59      -1.4777      2.00000
     60      -1.4776      2.00000
[...]
     90       0.6032     -0.00000
     91       0.7835     -0.00000
     92       0.7835     -0.00000
     93       1.6507     -0.00000
     94       1.8577     -0.00000
     95       1.8579     -0.00000
     96       2.4467     -0.00000
     97       2.4738     -0.00000
     98       2.4738     -0.00000
     99       2.6826     -0.00000
    100       2.6946     -0.00000
    101       2.6946     -0.00000
    102       3.3223     -0.00000
    103       3.3224     -0.00000
    104       4.9574     -0.00000

[...]

 k-point    13 :      -0.2000    0.4000    0.0000
  band No.  band energies     occupation
      1     -22.3973      2.00000
      2     -10.5634      2.00000
      3      -7.3107      2.00000
      4      -7.1796      2.00000
      5      -6.7476      2.00000
      6      -6.6375      2.00000
      7      -6.4137      2.00000
      8      -6.1949      2.00000
      9      -6.1176      2.00000
     10      -5.9567      2.00000
     11      -5.5989      2.00000
     12      -5.4104      2.00000
     13      -5.3233      2.00000
     14      -5.2979      2.00000
     15      -5.2165      2.00000
     16      -5.1481      2.00000
     17      -5.0632      2.00000
     18      -5.0066      2.00000
     19      -4.9648      2.00000
     20      -4.7801      2.00000
     21      -4.7713      2.00000
     22      -4.7498      2.00000
     23      -4.7053      2.00000
     24      -4.6138      2.00000
     25      -4.5677      2.00000
     26      -4.4181      2.00000
     27      -4.3946      2.00000
     28      -4.3627      2.00000
     29      -4.3547      2.00000
     30      -4.3008      2.00000
     31      -4.2378      2.00000
     32      -4.2034      2.00000
     33      -4.1526      2.00000
     34      -3.9930      2.00000
     35      -3.8228      2.00000
     36      -3.7921      2.00000
     37      -3.7307      2.00000
     38      -3.7169      2.00000
     39      -3.6504      2.00000
     40      -3.6024      2.00000
     41      -3.5648      2.00000
     42      -3.5214      2.00000
     43      -3.5049      2.00000
     44      -3.4755      2.00000
     45      -3.3963      2.00000
     46      -3.2255      2.00000
     47      -3.1042      2.00000
     48      -3.0905      2.00000
     49      -2.9626      2.00000
     50      -2.9416      2.00000
     51      -2.8808      2.00000
     52      -2.8146      2.00000
     53      -2.7924      2.00000
     54      -2.7832      2.00000
     55      -2.6256      2.00000
     56      -2.5477      2.00000
     57      -2.3138      2.00000
     58      -2.2884      2.00000
     59      -2.2333      2.00000
     60      -2.1864      2.00000
[...]
     90       0.2054     -0.02568
     91       0.2318     -0.01735
     92       0.3108     -0.00407
     93       1.1087     -0.00000
     94       1.7495     -0.00000
     95       2.0122     -0.00000
     96       2.7950     -0.00000
     97       3.1679     -0.00000
     98       3.5157     -0.00000
     99       3.7219     -0.00000
    100       4.3840     -0.00000
    101       4.6246     -0.00000
    102       5.0895     -0.00000
    103       5.3344      0.00000
    104       5.4856      0.00000

 soft charge-density along one line, spin component           1
         0         1         2         3         4         5         6         7         8         9
 total charge-density along one line

------------------------ aborting loop because EDIFF is reached ----------------------------------------

 VOLUME and BASIS-vectors are now :
  energy-cutoff  :      350.00
  volume of cell :      742.39
      direct lattice vectors                 reciprocal lattice vectors
     5.643844236  0.000000000  0.000000000     0.177184195 -0.102297343  0.000000000
     2.821922118  4.887712483  0.000000000     0.000000000  0.204594686  0.000000000
     0.000000000  0.000000000 26.912269283     0.000000000  0.000000000  0.037157773

  length of vectors
     5.643844236  5.643844236 26.912269283     0.204594686  0.204594686  0.037157773

 FORCES acting on ions
    electron-ion (+dipol)            ewald-force                    non-local-force                 convergence-correction
   0.381E-03 0.569E-02 0.268E+04   0.127E-03 0.812E-04 -.268E+04   0.391E-04 0.145E-03 -.132E+01   -.557E-03 -.600E-02 0.112E+00
   -.428E-03 -.487E-01 0.268E+04   -.124E-03 -.273E-02 -.268E+04   -.134E-05 -.513E-03 -.124E+01   0.571E-03 -.930E-02 0.113E+00
   -.470E-01 0.212E-01 0.268E+04   -.243E-02 0.125E-02 -.268E+04   -.703E-03 0.208E-03 -.124E+01   -.292E-02 0.797E-02 0.117E+00
   0.470E-01 0.217E-01 0.268E+04   0.243E-02 0.140E-02 -.268E+04   0.660E-03 0.212E-03 -.124E+01   0.289E-02 0.733E-02 0.117E+00
   0.186E+01 0.107E+01 0.102E+04   -.188E+01 -.109E+01 -.102E+04   0.115E-01 0.657E-02 -.178E+00   0.184E-01 0.106E-01 0.431E+00
   -.186E+01 0.107E+01 0.102E+04   0.188E+01 -.109E+01 -.102E+04   -.114E-01 0.660E-02 -.178E+00   -.184E-01 0.101E-01 0.431E+00
   -.154E-02 -.214E+01 0.102E+04   0.196E-02 0.217E+01 -.102E+04   0.448E-04 -.131E-01 -.179E+00   -.409E-03 -.210E-01 0.431E+00
   0.742E-03 0.303E-03 0.102E+04   -.117E-02 -.608E-03 -.102E+04   0.346E-04 0.145E-04 -.481E+00   0.430E-03 0.318E-03 0.414E+00
   0.658E-02 0.260E+00 -.651E+03   -.640E-02 -.426E-01 0.650E+03   -.790E-04 -.242E+00 0.179E+00   -.237E-03 0.246E-01 0.193E+00
   -.490E-02 -.758E-02 -.645E+03   0.472E-02 0.191E-02 0.643E+03   -.676E-04 -.766E-04 0.108E+01   0.271E-03 0.589E-02 0.208E+00
   -.231E+00 -.129E+00 -.651E+03   0.376E-01 0.225E-01 0.650E+03   0.209E+00 0.121E+00 0.179E+00   -.160E-01 -.146E-01 0.188E+00
   0.232E+00 -.122E+00 -.651E+03   -.393E-01 0.162E-01 0.650E+03   -.209E+00 0.121E+00 0.179E+00   0.160E-01 -.149E-01 0.188E+00
   0.938E-02 0.895E-02 -.228E+04   -.914E-02 -.504E-02 0.228E+04   -.442E-04 0.664E-04 0.159E+01   -.255E-03 -.406E-02 -.413E-01
   -.120E-01 0.897E+02 -.230E+04   0.116E-01 -.899E+02 0.230E+04   0.527E-04 0.219E+00 -.793E+00   0.232E-03 -.764E-03 -.535E-01
   0.777E+02 -.449E+02 -.230E+04   -.779E+02 0.450E+02 0.230E+04   0.190E+00 -.110E+00 -.794E+00   0.219E-02 0.218E-02 -.508E-01
   -.777E+02 -.449E+02 -.230E+04   0.779E+02 0.450E+02 0.230E+04   -.189E+00 -.109E+00 -.794E+00   -.218E-02 0.189E-02 -.507E-01
   -.259E-01 -.144E-01 -.105E+04   0.278E-01 0.161E-01 0.104E+04   -.198E-02 -.109E-02 0.732E+01   -.363E-03 -.741E-03 -.492E-01
   0.324E-01 0.191E-01 -.192E+04   -.417E-01 -.242E-01 0.198E+04   0.941E-02 0.546E-02 -.566E+02   -.131E-03 -.337E-03 -.102E+00
   -.807E-02 -.420E-02 0.519E+02   0.274E-13 -.283E-13 -.182E-11   0.779E-02 0.461E-02 -.545E+02   -.457E-03 -.810E-03 0.259E+01

 POSITION                                       TOTAL-FORCE (eV/Angst)
      0.00000      0.00000     10.00000         0.000031     -0.000056     -0.084804
      2.82192      0.00000     10.00000         0.000059     -0.061245     -0.165255
      1.41096      2.44386     10.00000        -0.052981      0.030698     -0.164301
      4.23288      2.44386     10.00000         0.053043      0.030669     -0.164333
      1.41096      0.81462     12.30409         0.003978      0.002274      0.070203
      4.23288      0.81462     12.30409        -0.003843      0.002305      0.070203
      2.82192      3.25847     12.30409         0.000095     -0.004496      0.070057
      5.64384      3.25847     12.30409         0.000073      0.000049      0.383108
      5.64386      1.64541     14.61278        -0.000099      0.000171     -0.000435
      2.82194      1.62925     14.59576         0.000059      0.000159     -0.007195
      7.04084      4.06503     14.61275        -0.000006     -0.000070     -0.000931
      4.24690      4.06502     14.61277        -0.000022     -0.000180     -0.000868
      8.46576      4.88771     16.83962        -0.000019     -0.000064     -0.000388
      5.64383      4.87753     17.02069        -0.000075     -0.009578     -0.004099
      7.04597      2.44893     17.02069        -0.008334      0.004704     -0.003861
      4.24162      2.44890     17.02087         0.008343      0.004790     -0.003762
      2.82176      1.62915     18.36159        -0.000388     -0.000182     -0.007087
      2.82157      1.62903     19.56071         0.000085      0.000050      0.013749
    total drift:                               -0.000743     -0.000399     -0.004747

  FREE ENERGIE OF THE ION-ELECTRON SYSTEM (eV)
  free  energy   TOTEN  =       -98.77270301 eV

  energy  without entropy=      -98.75462893  energy(sigma->0) =      -98.76667832

volume of typ            1:    30.5 %

[...]

volume of typ            3:     0.3 %

total charge

# of ion       s       p       d       tot
    1        0.568   0.387   7.868   8.822
    2        0.569   0.386   7.869   8.823
    3        0.569   0.386   7.868   8.823
    4        0.569   0.386   7.868   8.823
    5        0.553   0.493   7.883   8.929
    6        0.554   0.493   7.883   8.929
    7        0.553   0.493   7.882   8.928
    8        0.561   0.500   7.864   8.925
    9        0.558   0.488   7.879   8.926
   10        0.549   0.470   7.878   8.898
   11        0.558   0.488   7.879   8.925
   12        0.558   0.488   7.879   8.925
   13        0.570   0.400   7.886   8.856
   14        0.567   0.459   7.916   8.943
   15        0.567   0.459   7.916   8.943
   16        0.567   0.459   7.916   8.943
   17        0.778   1.426   0.089   2.293
   18        1.439   3.178   0.040   4.656
tot          11.21   11.84  126.26  149.31