 vasp.5.4.4.18Apr17-6-g9f103f2a35 (build Aug 07 2018 15:16:41) complex

 executed on             LinuxIFC date 2019.10.18  01:18:37

 INCAR:
 POTCAR:    PAW_PBE Cu 22Jun2005
 POTCAR:    PAW_PBE Cu 22Jun2005
   VRHFIN =Cu: d10 p1

   TITEL  = PAW_PBE Cu 22Jun2005
   POMASS =   63.546; ZVAL   =   11.000    mass and valenz
   ENMAX  =  295.446; ENMIN  =  221.585 eV

 Optimization of the real space projectors (new method)

 maximal supplied QI-value         = 16.25
 optimisation between [QCUT,QGAM] = [  9.43, 19.01] = [ 24.88,101.24] Ry
 Optimized for a Real-space Cutoff    1.66 Angstroem

   l    n(q)    QCUT    max X(q) W(low)/X(q) W(high)/X(q)  e(spline)
   2      8     9.426     4.610    0.15E-03    0.59E-04    0.31E-06
   2      8     9.426     8.522    0.24E-03    0.87E-04    0.54E-06
   0      9     9.426    51.609    0.44E-04    0.64E-05    0.15E-06
   0      9     9.426    27.747    0.41E-04    0.65E-05    0.15E-06
   1      9     9.426    20.408    0.73E-04    0.11E-03    0.16E-06
   1      9     9.426    13.425    0.63E-04    0.98E-04    0.15E-06

  PAW_PBE Cu 22Jun2005                  :

 POSCAR: Cu
  positions in cartesian coordinates
 exchange correlation table for  LEXCH =        9
   RHO(1)=    0.500       N(1)  =     2000
   RHO(2)=  100.500       N(2)  =     4000

 ion  position               nearest neighbor table
   1  0.000  0.000  0.379-   5 2.60   3 2.60   3 2.60   4 2.60   4 2.60   2 2.60   2 2.60   6 2.60
                             7 2.60
   2  0.500  0.000  0.379-   6 2.60   4 2.60   3 2.60   4 2.60   3 2.60   1 2.60   1 2.60   5 2.60
                             8 2.60
   3  0.000  0.500  0.379-   7 2.60   1 2.60   1 2.60   2 2.60   2 2.60   4 2.60   4 2.60   5 2.60
                             8 2.60
   4  0.500  0.500  0.379-   8 2.60   2 2.60   1 2.60   2 2.60   1 2.60   3 2.60   3 2.60   7 2.60
                             6 2.60
   5  0.167  0.167  0.460-  12 2.57  10 2.57   9 2.57   1 2.60   7 2.60   7 2.60   8 2.60   8 2.60
                             6 2.60   6 2.60   3 2.60   2 2.60
   6  0.667  0.167  0.460-   9 2.57  10 2.57  11 2.57   2 2.60   8 2.60   7 2.60   8 2.60   7 2.60
                             5 2.60   5 2.60   4 2.60   1 2.60
   7  0.167  0.667  0.460-  12 2.57  10 2.57  11 2.57   3 2.60   5 2.60   5 2.60   6 2.60   6 2.60
                             8 2.60   8 2.60   4 2.60   1 2.60
   8  0.667  0.667  0.460-  12 2.57  11 2.57   9 2.57   4 2.60   6 2.60   5 2.60   6 2.60   5 2.60
                             7 2.60   7 2.60   2 2.60   3 2.60
   9  0.833  0.333  0.539-   6 2.57   5 2.57   8 2.57  13 2.57  16 2.57  15 2.57  11 2.60  12 2.60
                            10 2.60  10 2.60  12 2.60  11 2.60
  10  0.333  0.333  0.539-   5 2.57   6 2.57   7 2.57  14 2.57  16 2.57  15 2.57  11 2.60  12 2.60
                             9 2.60   9 2.60  12 2.60  11 2.60
  11  0.833  0.833  0.539-   6 2.57   7 2.57   8 2.57  14 2.57  13 2.57  15 2.57   9 2.60  12 2.60
                            10 2.60  10 2.60  12 2.60   9 2.60
  12  0.333  0.833  0.539-   5 2.57   7 2.57   8 2.57  13 2.57  16 2.57  14 2.57   9 2.60  11 2.60
                            10 2.60  10 2.60  11 2.60   9 2.60
  13  1.000  0.000  0.618-   9 2.57  11 2.57  12 2.57  14 2.60  16 2.60  15 2.60  15 2.60  16 2.60
                            14 2.60
  14  0.500  0.000  0.618-  11 2.57  10 2.57  12 2.57  13 2.60  16 2.60  15 2.60  15 2.60  16 2.60
                            13 2.60
  15  1.000  0.500  0.618-  11 2.57  10 2.57   9 2.57  14 2.60  13 2.60  16 2.60  16 2.60  13 2.60
                            14 2.60
  16  0.500  0.500  0.618-   9 2.57  10 2.57  12 2.57  13 2.60  14 2.60  15 2.60  15 2.60  14 2.60
                            13 2.60

IMPORTANT INFORMATION: All symmetrisations will be switched off!
NOSYMM: (Re-)initialisation of all symmetry stuff for point group C_1.

 KPOINTS: KPOINTS created by Atomic Simulation Env

Automatic generation of k-mesh.
Space group operators:
 irot       det(A)        alpha          n_x          n_y          n_z        tau_x        tau_y        tau_z
    1     1.000000     0.000000     1.000000     0.000000     0.000000     0.000000     0.000000     0.000000

 Subroutine IBZKPT returns following result:

 Found     13 irreducible k-points:

 Following reciprocal coordinates:
            Coordinates               Weight
  0.000000  0.000000  0.000000      1.000000
  0.200000 -0.000000  0.000000      2.000000
  0.400000 -0.000000  0.000000      2.000000
  0.000000  0.200000  0.000000      2.000000
  0.200000  0.200000  0.000000      2.000000
  0.400000  0.200000  0.000000      2.000000
 -0.400000  0.200000  0.000000      2.000000
 -0.200000  0.200000  0.000000      2.000000
  0.000000  0.400000  0.000000      2.000000
  0.200000  0.400000  0.000000      2.000000
  0.400000  0.400000  0.000000      2.000000
 -0.400000  0.400000  0.000000      2.000000
 -0.200000  0.400000  0.000000      2.000000

 Following cartesian coordinates:
            Coordinates               Weight
  0.000000  0.000000  0.000000      1.000000
  0.038462 -0.022206  0.000000      2.000000
  0.076924 -0.044412  0.000000      2.000000
  0.000000  0.044412  0.000000      2.000000
  0.038462  0.022206  0.000000      2.000000
  0.076924  0.000000  0.000000      2.000000
 -0.076924  0.088824  0.000000      2.000000
 -0.038462  0.066618  0.000000      2.000000
  0.000000  0.088824  0.000000      2.000000
  0.038462  0.066618  0.000000      2.000000
  0.076924  0.044412  0.000000      2.000000
 -0.076924  0.133236  0.000000      2.000000
 -0.038462  0.111030  0.000000      2.000000

 SYSTEM =  unknown system
 POSCAR =  Cu

 Startparameter for this run:
   NWRITE =      2    write-flag & timer
   PREC   = normal    normal or accurate (medium, high low for compatibility)
   ISTART =      0    job   : 0-new  1-cont  2-samecut
   ICHARG =      2    charge: 1-file 2-atom 10-const
   ISPIN  =      1    spin polarized calculation?
   LNONCOLLINEAR =      F non collinear calculations
   LSORBIT =      F    spin-orbit coupling
   INIWAV =      1    electr: 0-lowe 1-rand  2-diag
   LASPH  =      F    aspherical Exc in radial PAW
   METAGGA=      F    non-selfconsistent MetaGGA calc.

 Electronic Relaxation 1
   ENCUT  =  350.0 eV  25.72 Ry    5.07 a.u.   7.93  7.93 40.22*2*pi/ulx,y,z
   ENINI  =  350.0     initial cutoff
   ENAUG  =  587.0 eV  augmentation charge cutoff
   NELM   =     60;   NELMIN=  2; NELMDL= -5     # of ELM steps
   EDIFF  = 0.1E-03   stopping-criterion for ELM
   LREAL  =      T    real-space projection
   NLSPLINE    = F    spline interpolate recip. space projectors
   LCOMPAT=      F    compatible to vasp.4.4
   GGA_COMPAT  = T    GGA compatible to vasp.4.4-vasp.4.6
   LMAXPAW     = -100 max onsite density
   LMAXMIX     =    2 max onsite mixed and CHGCAR
   VOSKOWN=      0    Vosko Wilk Nusair interpolation
   ROPT   =   -0.00050
 Ionic relaxation
   EDIFFG = -.3E-01   stopping-criterion for IOM
   NSW    =      0    number of steps for IOM
   NBLOCK =      1;   KBLOCK =      1    inner block; outer block
   IBRION =     -1    ionic relax: 0-MD 1-quasi-New 2-CG
   NFREE  =      1    steps in history (QN), initial steepest desc. (CG)
   ISIF   =      0    stress and relaxation
   IWAVPR =     10    prediction:  0-non 1-charg 2-wave 3-comb
   ISYM   =      0    0-nonsym 1-usesym 2-fastsym
   LCORR  =      T    Harris-Foulkes like correction to forces

   POTIM  = 0.5000    time-step for ionic-motion
   TEIN   =    0.0    initial temperature
   TEBEG  =    0.0;   TEEND  =   0.0 temperature during run
   SMASS  =  -3.00    Nose mass-parameter (am)
   estimated Nose-frequenzy (Omega)   =  0.10E-29 period in steps =****** mass=  -0.618E-27a.u.
   SCALEE = 1.0000    scale energy and forces
   NPACO  =    256;   APACO  = 16.0  distance and # of slots for P.C.
   PSTRESS=    0.0 pullay stress

  Mass of Ions in am
   POMASS =  63.55
  Ionic Valenz
   ZVAL   =  11.00
  Atomic Wigner-Seitz radii
  virtual crystal weights
   VCA    =   1.00
   NELECT =     176.0000    total number of electrons
   NUPDOWN=      -1.0000    fix difference up-down

 DOS related values:
   EMIN   =  10.00;   EMAX   =-10.00  energy-range for DOS
   EFERMI =   0.00
   ISMEAR =     1;   SIGMA  =   0.20  broadening in eV -4-tet -1-fermi 0-gaus

 Electronic relaxation 2 (details)
   IALGO  =     38    algorithm
   LDIAG  =      T    sub-space diagonalisation (order eigenvalues)
   LSUBROT=      F    optimize rotation matrix (better conditioning)
   TURBO    =      0    0=normal 1=particle mesh
   IRESTART =      0    0=no restart 2=restart with 2 vectors
   NREBOOT  =      0    no. of reboots
   NMIN     =      0    reboot dimension
   EREF     =   0.00    reference energy to select bands
   IMIX   =      4    mixing-type and parameters
     AMIX     =   0.40;   BMIX     =  1.00
     AMIX_MAG =   1.60;   BMIX_MAG =  1.00
     AMIN     =   0.10
     WC   =   100.;   INIMIX=   1;  MIXPRE=   1;  MAXMIX= -45

 Intra band minimization:
   WEIMIN = 0.0000     energy-eigenvalue tresh-hold
   EBREAK =  0.23E-06  absolut break condition
   DEPER  =   0.30     relativ break condition

   TIME   =   0.40     timestep for ELM

  volume/ion in A,a.u.               =      38.59       260.43
  Fermi-wavevector in a.u.,A,eV,Ry     =   1.077390  2.035971 15.793213  1.160768
  Thomas-Fermi vector in A             =   2.213300

 Write flags
   LWAVE        =      F    write WAVECAR
   LDOWNSAMPLE  =      F    k-point downsampling of WAVECAR
   LCHARG       =      F    write CHGCAR
   LVTOT        =      F    write LOCPOT, total local potential
   LVHAR        =      F    write LOCPOT, Hartree potential only
   LELF         =      F    write electronic localiz. function (ELF)
   LORBIT       =      0    0 simple, 1 ext, 2 COOP (PROOUT), +10 PAW based schemes

 Dipole corrections
   LMONO  =      F    monopole corrections only (constant potential shift)
   LDIPOL =      F    correct potential (dipole corrections)
   IDIPOL =      0    1-x, 2-y, 3-z, 4-all directions
   EPSILON=  1.0000000 bulk dielectric constant

 Exchange correlation treatment:
   GGA     =    RP    GGA type
   VOSKOWN=      0    Vosko Wilk Nusair interpolation
   LHFCALC =     F    Hartree Fock is set to
   LHFONE  =     F    Hartree Fock one center treatment
   AEXX    =    0.0000 exact exchange contribution

 Linear response parameters
   LEPSILON=     F    determine dielectric tensor
   LRPA    =     F    only Hartree local field effects (RPA)
   LNABLA  =     F    use nabla operator in PAW spheres
   LVEL    =     F    velocity operator in full k-point grid
   LINTERFAST=   F  fast interpolation
   KINTER  =     0    interpolate to denser k-point grid
   CSHIFT  =0.1000    complex shift for real part using Kramers Kronig
   OMEGAMAX=  -1.0    maximum frequency
   DEG_THRESHOLD= 0.2000000E-02 threshold for treating states as degnerate
   RTIME   =   -0.100 relaxation time in fs
  (WPLASMAI=    0.000 imaginary part of plasma frequency in eV, 0.658/RTIME)
   DFIELD  = 0.0000000 0.0000000 0.0000000 field for delta impulse in time

 Orbital magnetization related:
   ORBITALMAG=     F  switch on orbital magnetization
[...]
   3.89997272  2.25165030 10.00000000
   1.29999091  0.75055010 12.12287626
   3.89997272  0.75055010 12.12287626
   2.59998182  3.00220040 12.12287626
   5.19996363  3.00220040 12.12287626
   5.19994136  1.50103823 14.20506431
   2.59997682  1.50107265 14.20503932
   6.49997027  3.75278601 14.20506767
   3.89993200  3.75277601 14.20503298
   5.19995140  0.00001809 16.29049281
   2.60001634  0.00001984 16.29046970
   6.49996307  2.25166968 16.29055161
   3.89998587  2.25163850 16.29048325

 k-point  1 :   0.0000 0.0000 0.0000  plane waves:    9087
 k-point  2 :   0.2000-0.0000 0.0000  plane waves:    9166
 k-point  3 :   0.4000-0.0000 0.0000  plane waves:    9194
 k-point  4 :   0.0000 0.2000 0.0000  plane waves:    9166
 k-point  5 :   0.2000 0.2000 0.0000  plane waves:    9166
 k-point  6 :   0.4000 0.2000 0.0000  plane waves:    9184
 k-point  7 :  -0.4000 0.2000 0.0000  plane waves:    9208
 k-point  8 :  -0.2000 0.2000 0.0000  plane waves:    9184
 k-point  9 :   0.0000 0.4000 0.0000  plane waves:    9194
 k-point 10 :   0.2000 0.4000 0.0000  plane waves:    9184
 k-point 11 :   0.4000 0.4000 0.0000  plane waves:    9194
 k-point 12 :  -0.4000 0.4000 0.0000  plane waves:    9208
 k-point 13 :  -0.2000 0.4000 0.0000  plane waves:    9208

 maximum and minimum number of plane-waves per node :      2315     2241

 maximum number of plane-waves:      9208
 maximum index in each direction:
   IXMAX=    8   IYMAX=    7   IZMAX=   40
   IXMIN=   -8   IYMIN=   -8   IZMIN=  -40

 real space projection operators:
  max/ min on nodes  :       1253.25       1220.62

 parallel 3D FFT for wavefunctions:
    minimum data exchange during FFTs selected (reduces bandwidth)
 parallel 3D FFT for charge:
    minimum data exchange during FFTs selected (reduces bandwidth)

 Broyden mixing: mesh for mixing (old mesh)
   NGX = 15   NGY = 15   NGZ = 81
  (NGX  = 48   NGY  = 48   NGZ  =252)
  gives a total of  18225 points

 initial charge density was supplied:
 charge density of overlapping atoms calculated
 number of electron     176.0000000 magnetization
 keeping initial charge density in first step

 Maximum index for non-local projection operator          546
 Maximum index for augmentation-charges          248 (set IRDMAX)

 First call to EWALD:  gamma=   0.208
 Maximum number of real-space cells 5x 5x 1
 Maximum number of reciprocal cells 2x 2x 7

--------------------------------------- Iteration      1(   1)  ---------------------------------------

 eigenvalue-minimisations  :  2808
 total energy-change (2. order) : 0.1448915E+04  (-0.5922308E+04)
 number of electron     176.0000000 magnetization
 augmentation part      176.0000000 magnetization

 Free energy of the ion-electron system (eV)
  alpha Z        PSCENC =       303.20293321
  Ewald energy   TEWEN  =    108504.60098962
  -Hartree energ DENC   =   -129689.11857034
  -exchange      EXHF   =         0.00000000
  -V(xc)+E(xc)   XCENC  =       717.90666472
  PAW double counting   =     19663.77997115   -21341.09948072
  entropy T*S    EENTRO =        -0.00545334
  eigenvalues    EBANDS =      1051.08275298
  atomic energy  EATOM  =     22238.56510406
  Solvation  Ediel_sol  =         0.00000000
  free energy    TOTEN  =      1448.91491133 eV

  energy without entropy =     1448.92036467  energy(sigma->0) =     1448.91672911

[...]

 eigenvalue-minimisations  :  2808
 total energy-change (2. order) :-0.1360560E+04  (-0.1310126E+04)
 number of electron     176.0000000 magnetization
 augmentation part      176.0000000 magnetization

[...]

 Broyden mixing:
  rms(total) = 0.27387E+01    rms(broyden)= 0.27382E+01
  rms(prec ) = 0.28572E+01
  weight for this iteration     100.00

[...]

 eigenvalues of (default mixing * dielectric matrix)
  average eigenvalue GAMMA=   0.6391
  0.6391

[...]

 eigenvalue-minimisations  :  3204
 total energy-change (2. order) :-0.2522902E-03  (-0.4606462E-02)
 number of electron     176.0000972 magnetization
 augmentation part      112.6142610 magnetization

[...]

 Broyden mixing:
  rms(total) = 0.41218E-02    rms(broyden)= 0.41176E-02
  rms(prec ) = 0.58302E-02
  weight for this iteration     100.00

 eigenvalues of (default mixing * dielectric matrix)
  average eigenvalue GAMMA=   0.9563
  2.3325  2.3325  0.8818  0.8818  0.7758  0.7758  0.6143  0.2049  0.3738  0.3898

[...]

--------------------------------------- Iteration      1(  16)  ---------------------------------------

 eigenvalue-minimisations  :  2848
 total energy-change (2. order) : 0.9393727E-04  (-0.5447122E-04)
 number of electron     176.0000972 magnetization
 augmentation part      112.6086260 magnetization

 Free energy of the ion-electron system (eV)
  alpha Z        PSCENC =       303.20293321
  Ewald energy   TEWEN  =    108504.60098962
  -Hartree energ DENC   =   -129475.55036463
  -exchange      EXHF   =         0.00000000
  -V(xc)+E(xc)   XCENC  =       703.11951388
  PAW double counting   =     20636.17824361   -22344.11568234
  entropy T*S    EENTRO =         0.00438457
  eigenvalues    EBANDS =      -614.82018142
  atomic energy  EATOM  =     22238.56510406
  Solvation  Ediel_sol  =         0.00000000
  free energy    TOTEN  =       -48.81505943 eV

  energy without entropy =      -48.81944401  energy(sigma->0) =      -48.81652096

 average (electrostatic) potential at core
  the test charge radii are     0.9430
  (the norm of the test charge is              1.0000)
       1 -71.9121       2 -71.9129       3 -71.9135       4 -71.9132       5 -72.0580
       6 -72.0560       7 -72.0561       8 -72.0565       9 -72.0699      10 -72.0699
      11 -72.0718      12 -72.0709      13 -71.9264      14 -71.9264      15 -71.9268
      16 -71.9269

 E-fermi :  -0.7146     XC(G=0):  -4.7649     alpha+bet : -4.1082

 k-point     1 :       0.0000    0.0000    0.0000
  band No.  band energies     occupation
      1      -9.3230      2.00000
      2      -8.0871      2.00000
      3      -6.4733      2.00000
      4      -5.6084      2.00000
      5      -5.3356      2.00000
      6      -5.3355      2.00000
      7      -5.3354      2.00000
      8      -5.1992      2.00000
      9      -5.1991      2.00000
     10      -5.1988      2.00000
     11      -4.8294      2.00000
     12      -4.8294      2.00000
     13      -4.8291      2.00000
     14      -4.7947      2.00000
     15      -4.7947      2.00000
     16      -4.7945      2.00000
     17      -4.7574      2.00000
     18      -4.7573      2.00000
     19      -4.7572      2.00000
     20      -4.3890      2.00000
     21      -4.3889      2.00000
     22      -4.3888      2.00000
     23      -3.8517      2.00000
     24      -3.8516      2.00000
     25      -3.8514      2.00000
     26      -3.6511      2.00000
     27      -3.6414      2.00000
     28      -3.6413      2.00000
     29      -3.6412      2.00000
     30      -3.6309      2.00000
     31      -3.5559      2.00000
     32      -3.5557      2.00000
     33      -3.5191      2.00000
     34      -3.5190      2.00000
     35      -3.5129      2.00000
     36      -3.5128      2.00000
     37      -3.5124      2.00000
     38      -3.3883      2.00000
     39      -3.3882      2.00000
     40      -3.3806      2.00000
     41      -3.3498      2.00000
     42      -3.3494      2.00000
     43      -3.3492      2.00000
     44      -3.3423      2.00000
     45      -3.3421      2.00000
     46      -3.0777      2.00000
     47      -3.0776      2.00000
     48      -3.0773      2.00000
     49      -3.0556      2.00000
     50      -3.0553      2.00000
     51      -3.0552      2.00000
     52      -2.8189      2.00000
     53      -2.8188      2.00000
     54      -2.7221      2.00000
     55      -2.7220      2.00000
     56      -2.6254      2.00000
     57      -2.6252      2.00000
     58      -2.6250      2.00000
     59      -2.5445      2.00000
     60      -2.5444      2.00000
[...]
     94       0.5359     -0.00000
     95       0.8051     -0.00000
     96       0.8051     -0.00000
     97       0.8052     -0.00000
     98       3.0446     -0.00000
     99       3.2062     -0.00000
    100       3.3401     -0.00000
    101       3.3402     -0.00000
    102       3.3402     -0.00000
    103       4.1340     -0.00000
    104       4.1341     -0.00000
    105       4.1341     -0.00000
    106       4.1415     -0.00000
    107       4.3814     -0.00000
    108       5.1537      0.00000

[...]

 k-point    13 :      -0.2000    0.4000    0.0000
  band No.  band energies     occupation
      1      -7.3082      2.00000
      2      -7.3080      2.00000
      3      -6.2514      2.00000
      4      -6.2514      2.00000
      5      -6.1296      2.00000
      6      -5.3781      2.00000
      7      -5.0414      2.00000
      8      -5.0414      2.00000
      9      -4.7317      2.00000
     10      -4.6383      2.00000
     11      -4.5793      2.00000
     12      -4.5728      2.00000
     13      -4.5725      2.00000
     14      -4.5121      2.00000
     15      -4.3509      2.00000
     16      -4.3254      2.00000
     17      -4.2850      2.00000
     18      -4.2721      2.00000
     19      -4.2306      2.00000
     20      -4.2230      2.00000
     21      -4.2226      2.00000
     22      -4.0811      2.00000
     23      -4.0779      2.00000
     24      -4.0492      2.00000
     25      -4.0487      2.00000
     26      -4.0059      2.00000
     27      -3.9931      2.00000
     28      -3.9930      2.00000
     29      -3.8298      2.00000
     30      -3.8038      2.00000
     31      -3.7495      2.00000
     32      -3.7262      2.00000
     33      -3.7262      2.00000
     34      -3.7034      2.00000
     35      -3.6778      2.00000
     36      -3.6664      2.00000
     37      -3.6662      2.00000
     38      -3.6549      2.00000
     39      -3.6001      2.00000
     40      -3.5999      2.00000
     41      -3.4717      2.00000
     42      -3.4716      2.00000
     43      -3.4575      2.00000
     44      -3.3932      2.00000
     45      -3.3829      2.00000
     46      -3.3735      2.00000
     47      -3.3127      2.00000
     48      -3.3125      2.00000
     49      -3.2955      2.00000
     50      -3.2836      2.00000
     51      -3.1927      2.00000
     52      -3.1924      2.00000
     53      -3.0429      2.00000
     54      -3.0396      2.00000
     55      -3.0392      2.00000
     56      -3.0087      2.00000
     57      -3.0086      2.00000
     58      -2.9452      2.00000
     59      -2.8938      2.00000
     60      -2.8862      2.00000
[...]
     94       1.8713     -0.00000
     95       2.3554     -0.00000
     96       2.3555     -0.00000
     97       3.1808     -0.00000
     98       3.8107     -0.00000
     99       3.8927     -0.00000
    100       3.9928     -0.00000
    101       4.8434      0.00000
    102       4.9150      0.00000
    103       4.9151      0.00000
    104       5.0535      0.00000
    105       5.3014      0.00000
    106       5.3014      0.00000
    107       5.9257      0.00000
    108       6.2181      0.00000

 soft charge-density along one line, spin component           1
         0         1         2         3         4         5         6         7         8         9
 total charge-density along one line

------------------------ aborting loop because EDIFF is reached ----------------------------------------

 VOLUME and BASIS-vectors are now :
  energy-cutoff  :      350.00
  volume of cell :      617.47
      direct lattice vectors                 reciprocal lattice vectors
     5.199963631  0.000000000  0.000000000     0.192309037 -0.111029674  0.000000000
     2.599981815  4.503300603  0.000000000     0.000000000  0.222059349  0.000000000
     0.000000000  0.000000000 26.368628788     0.000000000  0.000000000  0.037923853

  length of vectors
     5.199963631  5.199963631 26.368628788     0.222059349  0.222059349  0.037923853

 FORCES acting on ions
    electron-ion (+dipol)            ewald-force                    non-local-force                 convergence-correction
   0.267E-02 0.917E-03 0.381E+04   -.109E-03 -.739E-04 -.381E+04   -.371E-03 -.269E-03 -.242E+01   -.206E-02 -.493E-03 -.256E+00
   -.263E-02 -.454E-03 0.381E+04   0.108E-03 -.476E-03 -.381E+04   0.251E-03 -.691E-03 -.242E+01   0.218E-02 0.179E-02 -.256E+00
   -.139E-02 -.174E-02 0.381E+04   -.350E-03 0.337E-03 -.381E+04   -.459E-03 0.690E-03 -.242E+01   0.228E-02 0.531E-03 -.255E+00
   0.148E-02 0.126E-02 0.381E+04   0.348E-03 0.211E-03 -.381E+04   0.346E-03 0.388E-03 -.242E+01   -.224E-02 -.194E-02 -.255E+00
   0.191E-03 -.781E-02 0.128E+04   0.110E-02 0.854E-02 -.128E+04   0.414E-04 0.314E-03 -.990E+00   -.136E-02 -.103E-02 -.836E-01
   0.620E-03 -.454E-02 0.128E+04   -.175E-02 0.271E-02 -.128E+04   -.785E-04 -.983E-04 -.990E+00   0.121E-02 0.194E-02 -.851E-01
   0.309E-02 0.669E-02 0.128E+04   -.531E-02 -.671E-02 -.128E+04   -.381E-03 -.221E-03 -.990E+00   0.256E-02 0.264E-03 -.853E-01
   -.250E-02 0.644E-02 0.128E+04   0.479E-02 -.517E-02 -.128E+04   0.187E-03 -.247E-03 -.991E+00   -.247E-02 -.104E-02 -.831E-01
   -.192E-01 -.678E-01 -.127E+04   0.217E-01 0.684E-01 0.127E+04   0.325E-03 0.117E-02 0.799E+00   -.257E-02 -.133E-02 0.732E-01
   0.171E-01 -.329E-01 -.127E+04   -.199E-01 0.323E-01 0.127E+04   -.146E-03 0.445E-03 0.799E+00   0.271E-02 0.364E-03 0.725E-01
   0.294E-01 0.595E-01 -.127E+04   -.304E-01 -.611E-01 0.127E+04   -.609E-03 -.904E-03 0.799E+00   0.145E-02 0.215E-02 0.719E-01
   -.310E-01 0.389E-01 -.127E+04   0.319E-01 -.374E-01 0.127E+04   0.732E-03 -.500E-03 0.799E+00   -.137E-02 -.118E-02 0.738E-01
   -.339E-01 0.116E-01 -.382E+04   0.322E-01 -.146E-01 0.381E+04   0.609E-03 -.342E-03 0.260E+01   0.128E-02 0.312E-02 0.264E+00
   0.349E-01 0.117E-01 -.382E+04   -.333E-01 -.150E-01 0.381E+04   -.399E-03 -.354E-03 0.260E+01   -.137E-02 0.347E-02 0.263E+00
   0.550E-04 0.933E-02 -.382E+04   -.366E-03 -.533E-02 0.381E+04   0.148E-04 0.520E-04 0.260E+01   0.319E-03 -.401E-02 0.261E+00
   0.107E-02 -.311E-01 -.382E+04   -.720E-03 0.332E-01 0.381E+04   0.186E-03 0.612E-03 0.260E+01   -.548E-03 -.240E-02 0.259E+00
   -.178E-04 -.667E-04 -.368E-04   -.337E-13 -.386E-13 -.546E-11   0.248E-03 0.438E-04 -.384E-01   0.127E-04 0.186E-03 -.194E-01

 POSITION                                       TOTAL-FORCE (eV/Angst)
      0.00000      0.00000     10.00000         0.000105      0.000071      0.123877
      2.59998      0.00000     10.00000        -0.000103      0.000160      0.123536
      1.29999      2.25165     10.00000         0.000062     -0.000197      0.123257
      3.89997      2.25165     10.00000        -0.000078     -0.000091      0.123381
      1.29999      0.75055     12.12288        -0.000041      0.000003     -0.114646
      3.89997      0.75055     12.12288        -0.000012     -0.000006     -0.114560
      2.59998      3.00220     12.12288        -0.000052      0.000006     -0.114462
      5.19996      3.00220     12.12288        -0.000002     -0.000026     -0.114280
      5.19994      1.50104     14.20506         0.000272      0.000496     -0.001952
      2.59998      1.50107     14.20504        -0.000171      0.000243     -0.001938
      6.49997      3.75279     14.20507        -0.000208     -0.000429     -0.001727
      3.89993      3.75278     14.20503         0.000263     -0.000185     -0.001667
      5.19995      0.00002     16.29049         0.000174     -0.000171     -0.007246
      2.60002      0.00002     16.29047        -0.000185     -0.000189     -0.007272
      6.49996      2.25167     16.29055         0.000008      0.000037     -0.007399
      3.89999      2.25164     16.29048        -0.000031      0.000277     -0.006902
    total drift:                                0.000243      0.000163     -0.057868

  FREE ENERGIE OF THE ION-ELECTRON SYSTEM (eV)
  free  energy   TOTEN  =       -48.81505943 eV

  energy  without entropy=      -48.81944401  energy(sigma->0) =      -48.81652096

volume of typ            1:    36.6 %

total charge

# of ion       s       p       d       tot
    1        0.656   0.511   9.482  10.649
    2        0.656   0.511   9.482  10.649
    3        0.656   0.511   9.482  10.649
    4        0.656   0.511   9.482  10.649
    5        0.663   0.683   9.507  10.853
    6        0.663   0.683   9.506  10.853
    7        0.663   0.683   9.506  10.853
    8        0.663   0.683   9.506  10.853
    9        0.667   0.695   9.510  10.872
   10        0.667   0.695   9.510  10.872
   11        0.667   0.695   9.510  10.872
   12        0.667   0.695   9.510  10.872
   13        0.660   0.522   9.486  10.668
   14        0.660   0.522   9.486  10.668
   15        0.660   0.522   9.486  10.668
   16        0.660   0.522   9.486  10.668
tot          10.59    9.64  151.94  172.17