 vasp.5.4.4.18Apr17-6-g9f103f2a35 (build Aug 07 2018 15:16:41) complex

 executed on             LinuxIFC date 2019.10.18  01:18:28

 INCAR:
 POTCAR:    PAW_PBE Cu 22Jun2005
 POTCAR:    PAW_PBE C 08Apr2002
 POTCAR:    PAW_PBE O 08Apr2002
 POTCAR:    PAW_PBE Cu 22Jun2005
   VRHFIN =Cu: d10 p1

   TITEL  = PAW_PBE Cu 22Jun2005
   POMASS =   63.546; ZVAL   =   11.000    mass and valenz
   ENMAX  =  295.446; ENMIN  =  221.585 eV

 POTCAR:    PAW_PBE C 08Apr2002
   VRHFIN =C: s2p2

   TITEL  = PAW_PBE C 08Apr2002
   POMASS =   12.011; ZVAL   =    4.000    mass and valenz
   ENMAX  =  400.000; ENMIN  =  300.000 eV

 POTCAR:    PAW_PBE O 08Apr2002
   VRHFIN =O: s2p4

   TITEL  = PAW_PBE O 08Apr2002
   POMASS =   16.000; ZVAL   =    6.000    mass and valenz
   ENMAX  =  400.000; ENMIN  =  300.000 eV

 Optimization of the real space projectors (new method)

 maximal supplied QI-value         = 16.25
 optimisation between [QCUT,QGAM] = [  9.43, 19.01] = [ 24.88,101.24] Ry
 Optimized for a Real-space Cutoff    1.66 Angstroem

   l    n(q)    QCUT    max X(q) W(low)/X(q) W(high)/X(q)  e(spline)
   2      8     9.426     4.610    0.15E-03    0.59E-04    0.31E-06
   2      8     9.426     8.522    0.24E-03    0.87E-04    0.54E-06
   0      9     9.426    51.609    0.44E-04    0.64E-05    0.15E-06
   0      9     9.426    27.747    0.41E-04    0.65E-05    0.15E-06
   1      9     9.426    20.408    0.73E-04    0.11E-03    0.16E-06
   1      9     9.426    13.425    0.63E-04    0.98E-04    0.15E-06
 Optimization of the real space projectors (new method)

[...]

   l    n(q)    QCUT    max X(q) W(low)/X(q) W(high)/X(q)  e(spline)
   0      8     9.551   115.676    0.39E-03    0.54E-03    0.29E-06
   0      8     9.551    87.132    0.39E-03    0.54E-03    0.28E-06
   1      7     9.551     4.429    0.35E-03    0.51E-04    0.29E-06
   1      7     9.551     2.733    0.22E-03    0.42E-04    0.31E-06
 Optimization of the real space projectors (new method)

 maximal supplied QI-value         = 24.76
 optimisation between [QCUT,QGAM] = [  9.41, 19.06] = [ 24.78,101.75] Ry
 Optimized for a Real-space Cutoff    1.48 Angstroem

   l    n(q)    QCUT    max X(q) W(low)/X(q) W(high)/X(q)  e(spline)
   0      8     9.407    20.381    0.17E-03    0.13E-03    0.41E-06
   0      8     9.407    15.268    0.19E-03    0.15E-03    0.42E-06
   1      8     9.407     5.946    0.36E-03    0.29E-03    0.38E-06
   1      8     9.407     5.382    0.31E-03    0.24E-03    0.34E-06

  PAW_PBE Cu 22Jun2005                  :
  PAW_PBE C 08Apr2002                   :
  PAW_PBE O 08Apr2002                   :

 POSCAR: Cu  C  O
  positions in cartesian coordinates
 exchange correlation table for  LEXCH =        9
   RHO(1)=    0.500       N(1)  =     2000
   RHO(2)=  100.500       N(2)  =     4000

 ion  position               nearest neighbor table
   1  0.000  0.000  0.379-   5 2.60   3 2.60   3 2.60   4 2.60   4 2.60   2 2.60   2 2.60   6 2.60
                             7 2.60
   2  0.500  0.000  0.379-   6 2.60   4 2.60   3 2.60   4 2.60   3 2.60   1 2.60   1 2.60   5 2.60
                             8 2.60
   3  0.000  0.500  0.379-   7 2.60   1 2.60   1 2.60   2 2.60   2 2.60   4 2.60   4 2.60   5 2.60
                             8 2.60
   4  0.500  0.500  0.379-   8 2.60   2 2.60   1 2.60   2 2.60   1 2.60   3 2.60   3 2.60   7 2.60
                             6 2.60
   5  0.167  0.167  0.460-  10 2.55   9 2.59  12 2.59   1 2.60   7 2.60   7 2.60   8 2.60   8 2.60
                             6 2.60   6 2.60   3 2.60   2 2.60
   6  0.667  0.167  0.460-  10 2.55   9 2.59  11 2.59   2 2.60   8 2.60   7 2.60   8 2.60   7 2.60
                             5 2.60   5 2.60   4 2.60   1 2.60
   7  0.167  0.667  0.460-  10 2.55  12 2.59  11 2.59   3 2.60   5 2.60   5 2.60   6 2.60   6 2.60
                             8 2.60   8 2.60   4 2.60   1 2.60
   8  0.667  0.667  0.460-   9 2.59  12 2.59  11 2.59   4 2.60   6 2.60   5 2.60   6 2.60   5 2.60
                             7 2.60   7 2.60   2 2.60   3 2.60
   9  0.832  0.335  0.540-  13 2.54   8 2.59  12 2.59  11 2.59   6 2.59   5 2.59  10 2.60  10 2.60
                            15 2.61  16 2.61  11 2.61  12 2.61
  10  0.333  0.333  0.538-   5 2.55   6 2.55   7 2.55   9 2.60  12 2.60  11 2.60  11 2.60  12 2.60
                             9 2.60  14 2.66  15 2.66  16 2.66
  11  0.832  0.832  0.540-  13 2.54   8 2.59   9 2.59  12 2.59   6 2.59   7 2.59  10 2.60  10 2.60
                            14 2.61  15 2.61  12 2.61   9 2.61
  12  0.335  0.832  0.540-  13 2.54   8 2.59   9 2.59  11 2.59   7 2.59   5 2.59  10 2.60  10 2.60
                            14 2.61  16 2.61  11 2.61   9 2.61
  13  0.000  0.000  0.617-  11 2.54  12 2.54   9 2.54  15 2.60  14 2.60  16 2.60  16 2.60  14 2.60
                            15 2.60
  14  0.501  0.999  0.621-  17 2.07  15 2.59  16 2.59  13 2.60  13 2.60  16 2.61  15 2.61  11 2.61
                            12 2.61  10 2.66
  15  0.999  0.501  0.621-  17 2.07  14 2.59  16 2.59  13 2.60  13 2.60  16 2.61  14 2.61  11 2.61
                             9 2.61  10 2.66
  16  0.501  0.501  0.621-  17 2.07  14 2.59  15 2.59  13 2.60  13 2.60  15 2.61  14 2.61  12 2.61
                             9 2.61  10 2.66
  17  0.333  0.333  0.675-  18 1.19  14 2.07  15 2.07  16 2.07
  18  0.333  0.333  0.720-  17 1.19

IMPORTANT INFORMATION: All symmetrisations will be switched off!
NOSYMM: (Re-)initialisation of all symmetry stuff for point group C_1.

 KPOINTS: KPOINTS created by Atomic Simulation Env

Automatic generation of k-mesh.
Space group operators:
 irot       det(A)        alpha          n_x          n_y          n_z        tau_x        tau_y        tau_z
    1     1.000000     0.000000     1.000000     0.000000     0.000000     0.000000     0.000000     0.000000

 Subroutine IBZKPT returns following result:

 Found     13 irreducible k-points:

 Following reciprocal coordinates:
            Coordinates               Weight
  0.000000  0.000000  0.000000      1.000000
  0.200000 -0.000000  0.000000      2.000000
  0.400000 -0.000000  0.000000      2.000000
  0.000000  0.200000  0.000000      2.000000
  0.200000  0.200000  0.000000      2.000000
  0.400000  0.200000  0.000000      2.000000
 -0.400000  0.200000  0.000000      2.000000
 -0.200000  0.200000  0.000000      2.000000
  0.000000  0.400000  0.000000      2.000000
  0.200000  0.400000  0.000000      2.000000
  0.400000  0.400000  0.000000      2.000000
 -0.400000  0.400000  0.000000      2.000000
 -0.200000  0.400000  0.000000      2.000000

 Following cartesian coordinates:
            Coordinates               Weight
  0.000000  0.000000  0.000000      1.000000
  0.038462 -0.022206  0.000000      2.000000
  0.076924 -0.044412  0.000000      2.000000
  0.000000  0.044412  0.000000      2.000000
  0.038462  0.022206  0.000000      2.000000
  0.076924  0.000000  0.000000      2.000000
 -0.076924  0.088824  0.000000      2.000000
 -0.038462  0.066618  0.000000      2.000000
  0.000000  0.088824  0.000000      2.000000
  0.038462  0.066618  0.000000      2.000000
  0.076924  0.044412  0.000000      2.000000
 -0.076924  0.133236  0.000000      2.000000
 -0.038462  0.111030  0.000000      2.000000

 SYSTEM =  unknown system
 POSCAR =  Cu  C  O

 Startparameter for this run:
   NWRITE =      2    write-flag & timer
   PREC   = normal    normal or accurate (medium, high low for compatibility)
   ISTART =      0    job   : 0-new  1-cont  2-samecut
   ICHARG =      2    charge: 1-file 2-atom 10-const
   ISPIN  =      1    spin polarized calculation?
   LNONCOLLINEAR =      F non collinear calculations
   LSORBIT =      F    spin-orbit coupling
   INIWAV =      1    electr: 0-lowe 1-rand  2-diag
   LASPH  =      F    aspherical Exc in radial PAW
   METAGGA=      F    non-selfconsistent MetaGGA calc.

 Electronic Relaxation 1
   ENCUT  =  350.0 eV  25.72 Ry    5.07 a.u.   7.93  7.93 40.22*2*pi/ulx,y,z
   ENINI  =  350.0     initial cutoff
   ENAUG  =  644.9 eV  augmentation charge cutoff
   NELM   =     60;   NELMIN=  2; NELMDL= -5     # of ELM steps
   EDIFF  = 0.1E-03   stopping-criterion for ELM
   LREAL  =      T    real-space projection
   NLSPLINE    = F    spline interpolate recip. space projectors
   LCOMPAT=      F    compatible to vasp.4.4
   GGA_COMPAT  = T    GGA compatible to vasp.4.4-vasp.4.6
   LMAXPAW     = -100 max onsite density
   LMAXMIX     =    2 max onsite mixed and CHGCAR
   VOSKOWN=      0    Vosko Wilk Nusair interpolation
   ROPT   =   -0.00050  -0.00050  -0.00050
 Ionic relaxation
   EDIFFG = -.3E-01   stopping-criterion for IOM
   NSW    =      0    number of steps for IOM
   NBLOCK =      1;   KBLOCK =      1    inner block; outer block
   IBRION =     -1    ionic relax: 0-MD 1-quasi-New 2-CG
   NFREE  =      1    steps in history (QN), initial steepest desc. (CG)
   ISIF   =      0    stress and relaxation
   IWAVPR =     10    prediction:  0-non 1-charg 2-wave 3-comb
   ISYM   =      0    0-nonsym 1-usesym 2-fastsym
   LCORR  =      T    Harris-Foulkes like correction to forces

   POTIM  = 0.5000    time-step for ionic-motion
   TEIN   =    0.0    initial temperature
   TEBEG  =    0.0;   TEEND  =   0.0 temperature during run
   SMASS  =  -3.00    Nose mass-parameter (am)
   estimated Nose-frequenzy (Omega)   =  0.10E-29 period in steps =****** mass=  -0.618E-27a.u.
   SCALEE = 1.0000    scale energy and forces
   NPACO  =    256;   APACO  = 16.0  distance and # of slots for P.C.
   PSTRESS=    0.0 pullay stress

  Mass of Ions in am
   POMASS =  63.55 12.01 16.00
  Ionic Valenz
   ZVAL   =  11.00  4.00  6.00
  Atomic Wigner-Seitz radii
  virtual crystal weights
   VCA    =   1.00  1.00  1.00
   NELECT =     186.0000    total number of electrons
   NUPDOWN=      -1.0000    fix difference up-down

 DOS related values:
   EMIN   =  10.00;   EMAX   =-10.00  energy-range for DOS
   EFERMI =   0.00
   ISMEAR =     1;   SIGMA  =   0.20  broadening in eV -4-tet -1-fermi 0-gaus

 Electronic relaxation 2 (details)
   IALGO  =     38    algorithm
   LDIAG  =      T    sub-space diagonalisation (order eigenvalues)
   LSUBROT=      F    optimize rotation matrix (better conditioning)
   TURBO    =      0    0=normal 1=particle mesh
   IRESTART =      0    0=no restart 2=restart with 2 vectors
   NREBOOT  =      0    no. of reboots
   NMIN     =      0    reboot dimension
   EREF     =   0.00    reference energy to select bands
   IMIX   =      4    mixing-type and parameters
     AMIX     =   0.40;   BMIX     =  1.00
     AMIX_MAG =   1.60;   BMIX_MAG =  1.00
     AMIN     =   0.10
     WC   =   100.;   INIMIX=   1;  MIXPRE=   1;  MAXMIX= -45

 Intra band minimization:
   WEIMIN = 0.0000     energy-eigenvalue tresh-hold
   EBREAK =  0.22E-06  absolut break condition
   DEPER  =   0.30     relativ break condition

   TIME   =   0.40     timestep for ELM

  volume/ion in A,a.u.               =      34.30       231.50
  Fermi-wavevector in a.u.,A,eV,Ry     =   1.097420  2.073823 16.385914  1.204331
  Thomas-Fermi vector in A             =   2.233780

 Write flags
   LWAVE        =      F    write WAVECAR
   LDOWNSAMPLE  =      F    k-point downsampling of WAVECAR
[...]
 k-point  4 :   0.0000 0.2000 0.0000  plane waves:    9166
 k-point  5 :   0.2000 0.2000 0.0000  plane waves:    9166
 k-point  6 :   0.4000 0.2000 0.0000  plane waves:    9184
 k-point  7 :  -0.4000 0.2000 0.0000  plane waves:    9208
 k-point  8 :  -0.2000 0.2000 0.0000  plane waves:    9184
 k-point  9 :   0.0000 0.4000 0.0000  plane waves:    9194
 k-point 10 :   0.2000 0.4000 0.0000  plane waves:    9184
 k-point 11 :   0.4000 0.4000 0.0000  plane waves:    9194
 k-point 12 :  -0.4000 0.4000 0.0000  plane waves:    9208
 k-point 13 :  -0.2000 0.4000 0.0000  plane waves:    9208

 maximum and minimum number of plane-waves per node :      2315     2241

 maximum number of plane-waves:      9208
 maximum index in each direction:
   IXMAX=    8   IYMAX=    7   IZMAX=   40
   IXMIN=   -8   IYMIN=   -8   IZMIN=  -40

 real space projection operators:
  max/ min on nodes  :       1300.36       1261.62

 parallel 3D FFT for wavefunctions:
    minimum data exchange during FFTs selected (reduces bandwidth)
 parallel 3D FFT for charge:
    minimum data exchange during FFTs selected (reduces bandwidth)

 Broyden mixing: mesh for mixing (old mesh)
   NGX = 15   NGY = 15   NGZ = 81
  (NGX  = 48   NGY  = 48   NGZ  =252)
  gives a total of  18225 points

 initial charge density was supplied:
 charge density of overlapping atoms calculated
 number of electron     186.0000000 magnetization
 keeping initial charge density in first step

 Maximum index for non-local projection operator          546
 Maximum index for augmentation-charges          246 (set IRDMAX)

 First call to EWALD:  gamma=   0.208
 Maximum number of real-space cells 5x 5x 1
 Maximum number of reciprocal cells 2x 2x 7

--------------------------------------- Iteration      1(   1)  ---------------------------------------

 eigenvalue-minimisations  :  2912
 total energy-change (2. order) : 0.1625734E+04  (-0.6290047E+04)
 number of electron     186.0000000 magnetization
 augmentation part      186.0000000 magnetization

 Free energy of the ion-electron system (eV)
  alpha Z        PSCENC =       333.59272159
  Ewald energy   TEWEN  =    110502.17087986
  -Hartree energ DENC   =   -132265.94472292
  -exchange      EXHF   =         0.00000000
  -V(xc)+E(xc)   XCENC  =       758.20525692
  PAW double counting   =     20119.38880325   -21798.78739505
  entropy T*S    EENTRO =        -0.00887627
  eigenvalues    EBANDS =      1159.43774140
  atomic energy  EATOM  =     22817.67997243
  Solvation  Ediel_sol  =         0.00000000
  free energy    TOTEN  =      1625.73438121 eV

  energy without entropy =     1625.74325748  energy(sigma->0) =     1625.73733996

[...]

 eigenvalue-minimisations  :  2912
 total energy-change (2. order) :-0.1469299E+04  (-0.1417770E+04)
 number of electron     186.0000000 magnetization
 augmentation part      186.0000000 magnetization

[...]

 Broyden mixing:
  rms(total) = 0.31923E+01    rms(broyden)= 0.31909E+01
  rms(prec ) = 0.33570E+01
  weight for this iteration     100.00

[...]

 eigenvalues of (default mixing * dielectric matrix)
  average eigenvalue GAMMA=   0.5968
  0.5968

[...]

 eigenvalue-minimisations  :  4336
 total energy-change (2. order) : 0.2171162E-03  (-0.1490959E-03)
 number of electron     186.0000859 magnetization
 augmentation part      113.2179391 magnetization

[...]

 Broyden mixing:
  rms(total) = 0.11594E-02    rms(broyden)= 0.11592E-02
  rms(prec ) = 0.13000E-02
  weight for this iteration     100.00

 eigenvalues of (default mixing * dielectric matrix)
  average eigenvalue GAMMA=   1.0904
  4.0413  2.7132  2.3968  1.5834  1.5834  0.8723  0.8723  0.7854  0.7854  0.6745
  0.6745  0.2200  0.5678  0.4629  0.3808  0.3254  0.3526  0.3360

[...]

--------------------------------------- Iteration      1(  24)  ---------------------------------------

 eigenvalue-minimisations  :  1944
 total energy-change (2. order) :-0.7762843E-04  (-0.2826075E-05)
 number of electron     186.0000859 magnetization
 augmentation part      113.2084151 magnetization

 Free energy of the ion-electron system (eV)
  alpha Z        PSCENC =       333.59272159
  Ewald energy   TEWEN  =    110502.17087986
  -Hartree energ DENC   =   -132015.65774733
  -exchange      EXHF   =         0.00000000
  -V(xc)+E(xc)   XCENC  =       744.15510112
  PAW double counting   =     21553.89533083   -23264.51868577
  entropy T*S    EENTRO =         0.02168898
  eigenvalues    EBANDS =      -735.15650672
  atomic energy  EATOM  =     22817.67997243
  Solvation  Ediel_sol  =         0.00000000
  free energy    TOTEN  =       -63.81724501 eV

  energy without entropy =      -63.83893399  energy(sigma->0) =      -63.82447467

 average (electrostatic) potential at core
  the test charge radii are     0.9430  0.6991  0.7215
  (the norm of the test charge is              1.0000)
       1 -71.8693       2 -71.8881       3 -71.8880       4 -71.8881       5 -72.0860
       6 -72.0859       7 -72.0860       8 -72.0592       9 -72.0380      10 -71.9841
      11 -72.0382      12 -72.0380      13 -71.8073      14 -72.3336      15 -72.3337
      16 -72.3336      17 -58.2731      18 -78.9428

 E-fermi :  -0.7615     XC(G=0):  -5.0253     alpha+bet : -4.3918

 k-point     1 :       0.0000    0.0000    0.0000
  band No.  band energies     occupation
      1     -24.2497      2.00000
      2     -11.1080      2.00000
      3      -9.2341      2.00000
      4      -8.3247      2.00000
      5      -7.4776      2.00000
      6      -7.3960      2.00000
      7      -7.3954      2.00000
      8      -6.1235      2.00000
      9      -5.5286      2.00000
     10      -5.3266      2.00000
     11      -5.3114      2.00000
     12      -5.3113      2.00000
     13      -5.1804      2.00000
     14      -5.1804      2.00000
     15      -5.1484      2.00000
     16      -4.9309      2.00000
     17      -4.9308      2.00000
     18      -4.8140      2.00000
     19      -4.7940      2.00000
     20      -4.7845      2.00000
     21      -4.7844      2.00000
     22      -4.7527      2.00000
     23      -4.7527      2.00000
     24      -4.6802      2.00000
     25      -4.4362      2.00000
     26      -4.4361      2.00000
     27      -4.3678      2.00000
     28      -3.9491      2.00000
     29      -3.9491      2.00000
     30      -3.8682      2.00000
     31      -3.7547      2.00000
     32      -3.7008      2.00000
     33      -3.7007      2.00000
     34      -3.6737      2.00000
     35      -3.6736      2.00000
     36      -3.6506      2.00000
     37      -3.5909      2.00000
     38      -3.5494      2.00000
     39      -3.5493      2.00000
     40      -3.5337      2.00000
     41      -3.5244      2.00000
     42      -3.5243      2.00000
     43      -3.4877      2.00000
     44      -3.4876      2.00000
     45      -3.4593      2.00000
     46      -3.4592      2.00000
     47      -3.3267      2.00000
     48      -3.3265      2.00000
     49      -3.3194      2.00000
     50      -3.3125      2.00000
     51      -3.2447      2.00000
     52      -3.2447      2.00000
     53      -3.2196      2.00000
     54      -3.1161      2.00000
     55      -3.1161      2.00000
     56      -2.9936      2.00000
     57      -2.9315      2.00000
     58      -2.9315      2.00000
     59      -2.8012      2.00000
     60      -2.8012      2.00000
[...]
     98       0.3172     -0.00000
     99       0.7051     -0.00000
    100       0.7427     -0.00000
    101       0.7427     -0.00000
    102       1.1155     -0.00000
    103       1.1156     -0.00000
    104       2.8202     -0.00000
    105       3.3069     -0.00000
    106       3.4084     -0.00000
    107       3.4673     -0.00000
    108       3.4674     -0.00000
    109       3.7161     -0.00000
    110       4.2613     -0.00000
    111       4.4495     -0.00000
    112       4.6067     -0.00000

[...]

 k-point    13 :      -0.2000    0.4000    0.0000
  band No.  band energies     occupation
      1     -24.2504      2.00000
      2     -10.9562      2.00000
      3      -8.0077      2.00000
      4      -7.6210      2.00000
      5      -7.4581      2.00000
      6      -7.1892      2.00000
      7      -7.1583      2.00000
      8      -6.1941      2.00000
      9      -6.1057      2.00000
     10      -6.0059      2.00000
     11      -5.3495      2.00000
     12      -5.0300      2.00000
     13      -4.9255      2.00000
     14      -4.7204      2.00000
     15      -4.6413      2.00000
     16      -4.5835      2.00000
     17      -4.5667      2.00000
     18      -4.5564      2.00000
     19      -4.4986      2.00000
     20      -4.3916      2.00000
     21      -4.3577      2.00000
     22      -4.3038      2.00000
     23      -4.2803      2.00000
     24      -4.2741      2.00000
     25      -4.2376      2.00000
     26      -4.2309      2.00000
     27      -4.1820      2.00000
     28      -4.1255      2.00000
     29      -4.0924      2.00000
     30      -4.0594      2.00000
     31      -4.0498      2.00000
     32      -4.0359      2.00000
     33      -4.0047      2.00000
     34      -3.9698      2.00000
     35      -3.9307      2.00000
     36      -3.8716      2.00000
     37      -3.8533      2.00000
     38      -3.8356      2.00000
     39      -3.7799      2.00000
     40      -3.7662      2.00000
     41      -3.7215      2.00000
     42      -3.6819      2.00000
     43      -3.6494      2.00000
     44      -3.6375      2.00000
     45      -3.6078      2.00000
     46      -3.5903      2.00000
     47      -3.5418      2.00000
     48      -3.5018      2.00000
     49      -3.4830      2.00000
     50      -3.3898      2.00000
     51      -3.3836      2.00000
     52      -3.3684      2.00000
     53      -3.3430      2.00000
     54      -3.3258      2.00000
     55      -3.2762      2.00000
     56      -3.2455      2.00000
     57      -3.1795      2.00000
     58      -3.1711      2.00000
     59      -3.1392      2.00000
     60      -3.0798      2.00000
[...]
     98       1.2704     -0.00000
     99       1.5403     -0.00000
    100       1.9703     -0.00000
    101       2.4190     -0.00000
    102       2.9584     -0.00000
    103       3.0252     -0.00000
    104       3.7867     -0.00000
    105       3.9141     -0.00000
    106       4.1016     -0.00000
    107       4.7458      0.00000
    108       4.9926      0.00000
    109       5.1910      0.00000
    110       5.3269      0.00000
    111       5.7731      0.00000
    112       5.7947      0.00000

 soft charge-density along one line, spin component           1
         0         1         2         3         4         5         6         7         8         9
 total charge-density along one line

------------------------ aborting loop because EDIFF is reached ----------------------------------------

 VOLUME and BASIS-vectors are now :
  energy-cutoff  :      350.00
  volume of cell :      617.47
      direct lattice vectors                 reciprocal lattice vectors
     5.199963631  0.000000000  0.000000000     0.192309037 -0.111029674  0.000000000
     2.599981815  4.503300603  0.000000000     0.000000000  0.222059349  0.000000000
     0.000000000  0.000000000 26.368628788     0.000000000  0.000000000  0.037923853

  length of vectors
     5.199963631  5.199963631 26.368628788     0.222059349  0.222059349  0.037923853

 FORCES acting on ions
    electron-ion (+dipol)            ewald-force                    non-local-force                 convergence-correction
   0.754E-04 -.115E-03 0.395E+04   0.946E-04 0.536E-04 -.395E+04   -.301E-04 0.615E-05 -.288E+01   -.158E-03 0.536E-04 -.139E-02
   -.539E-04 0.328E+00 0.395E+04   -.813E-04 -.284E+00 -.395E+04   -.130E-04 -.232E-01 -.197E+01   0.166E-03 0.168E-03 -.100E-02
   0.284E+00 -.164E+00 0.395E+04   -.246E+00 0.142E+00 -.395E+04   -.201E-01 0.116E-01 -.197E+01   0.823E-04 -.272E-04 -.120E-02
   -.284E+00 -.164E+00 0.395E+04   0.246E+00 0.142E+00 -.395E+04   0.201E-01 0.116E-01 -.197E+01   -.689E-04 -.222E-03 -.966E-03
   0.601E+01 0.347E+01 0.149E+04   -.585E+01 -.338E+01 -.149E+04   -.230E+00 -.133E+00 -.104E+01   0.124E-02 0.725E-03 0.725E-02
   -.601E+01 0.347E+01 0.149E+04   0.585E+01 -.338E+01 -.149E+04   0.230E+00 -.133E+00 -.104E+01   -.123E-02 0.842E-03 0.726E-02
   0.169E-02 -.694E+01 0.149E+04   -.182E-02 0.676E+01 -.149E+04   0.567E-04 0.266E+00 -.104E+01   0.903E-04 -.150E-02 0.718E-02
   -.384E-02 -.225E-02 0.149E+04   0.393E-02 0.229E-02 -.149E+04   0.698E-04 0.738E-04 -.120E+01   -.919E-04 -.767E-04 0.891E-02
   -.106E-01 -.257E+01 -.998E+03   0.108E-01 0.251E+01 0.998E+03   0.275E-03 0.603E-01 0.654E+00   -.382E-03 0.212E-02 0.286E-01
   0.379E-02 0.247E-02 -.959E+03   -.413E-02 -.236E-02 0.958E+03   -.751E-04 -.165E-04 0.402E+00   0.396E-03 -.121E-03 0.261E-01
   0.224E+01 0.129E+01 -.998E+03   -.219E+01 -.126E+01 0.998E+03   -.526E-01 -.304E-01 0.653E+00   -.198E-02 -.773E-03 0.286E-01
   -.223E+01 0.127E+01 -.998E+03   0.218E+01 -.125E+01 0.998E+03   0.523E-01 -.299E-01 0.654E+00   0.196E-02 -.123E-02 0.290E-01
   0.379E-02 0.235E-02 -.345E+04   -.417E-02 -.246E-02 0.344E+04   0.243E-03 0.142E-03 0.306E+01   0.154E-03 -.200E-04 -.157E-02
   -.699E-02 0.827E+02 -.345E+04   0.708E-02 -.859E+02 0.345E+04   0.669E-04 0.320E+01 0.149E+01   -.145E-03 -.258E-02 -.560E-02
   0.717E+02 -.414E+02 -.345E+04   -.744E+02 0.430E+02 0.345E+04   0.277E+01 -.160E+01 0.149E+01   -.214E-02 0.120E-02 -.541E-02
   -.717E+02 -.414E+02 -.345E+04   0.744E+02 0.430E+02 0.345E+04   -.277E+01 -.160E+01 0.149E+01   0.218E-02 0.138E-02 -.577E-02
   -.111E-01 -.649E-02 -.148E+04   0.124E-01 0.733E-02 0.147E+04   -.132E-02 -.804E-03 0.135E+02   0.147E-03 -.583E-04 -.897E-03
   0.163E-01 0.959E-02 -.249E+04   -.211E-01 -.124E-01 0.255E+04   0.461E-02 0.269E-02 -.570E+02   0.354E-04 -.284E-05 0.160E-02
   -.404E-02 -.219E-02 0.466E+02   -.168E-13 -.643E-14 -.182E-11   0.366E-02 0.221E-02 -.467E+02   0.257E-03 -.125E-03 0.121E+00

 POSITION                                       TOTAL-FORCE (eV/Angst)
      0.00000      0.00000     10.00000        -0.000011      0.000004     -0.001784
      2.59998      0.00000     10.00000         0.000025      0.021024      0.053690
      1.29999      2.25165     10.00000         0.018204     -0.010489      0.053695
      3.89997      2.25165     10.00000        -0.018191     -0.010514      0.053687
      1.29999      0.75055     12.12288        -0.071731     -0.041416     -0.035941
      3.89997      0.75055     12.12288         0.071771     -0.041408     -0.035994
      2.59998      3.00220     12.12288         0.000028      0.082862     -0.035996
      5.19996      3.00220     12.12288         0.000075      0.000047      0.000126
      5.19993      1.50876     14.23424         0.000021      0.006572     -0.001478
      2.59997      1.50109     14.18272        -0.000010     -0.000015      0.000518
      6.49338      3.74895     14.23425        -0.005737     -0.003291     -0.001533
      3.90659      3.74890     14.23424         0.005715     -0.003259     -0.001477
      0.00002      0.00001     16.27257         0.000017      0.000017      0.009041
      5.19997      4.49728     16.37673         0.000013     -0.001271     -0.006680
      6.49474      2.25467     16.37673        -0.001123      0.000657     -0.006681
      3.90520      2.25467     16.37683         0.000994      0.000574     -0.006624
      2.59993      1.50107     17.79870         0.000081     -0.000014     -0.003225
      2.59984      1.50101     18.98582        -0.000141     -0.000081     -0.033345
    total drift:                               -0.000121     -0.000110     -0.034754

  FREE ENERGIE OF THE ION-ELECTRON SYSTEM (eV)
  free  energy   TOTEN  =       -63.81724501 eV

  energy  without entropy=      -63.83893399  energy(sigma->0) =      -63.82447467

volume of typ            1:    36.6 %

[...]

volume of typ            3:     0.3 %

total charge

# of ion       s       p       d       tot
    1        0.663   0.508   9.480  10.652
    2        0.661   0.512   9.477  10.650
    3        0.661   0.512   9.477  10.650
    4        0.661   0.512   9.477  10.650
    5        0.658   0.674   9.507  10.840
    6        0.658   0.674   9.507  10.840
    7        0.658   0.674   9.507  10.840
    8        0.663   0.670   9.506  10.839
    9        0.667   0.687   9.500  10.854
   10        0.667   0.674   9.504  10.846
   11        0.667   0.687   9.500  10.854
   12        0.667   0.687   9.500  10.854
   13        0.658   0.542   9.504  10.704
   14        0.665   0.663   9.500  10.828
   15        0.665   0.663   9.500  10.828
   16        0.665   0.663   9.500  10.828
   17        0.815   1.398   0.080   2.294
   18        1.441   3.181   0.041   4.663
tot          12.86   14.58  152.07  179.51